         600

Ar         2.5227913895         4.4593852607         6.1458761249
Ar         2.6033177075         5.3021626316         6.3898099949
Ar         1.8684189902         5.0279852908         5.9885462818
Ar         2.1344615107         5.4783246469         2.4897231627
Ar         2.7618988630         5.4222355222         3.1057087873
Ar         1.9136795871         5.4512133522         3.3422383990
Ar         3.4033787603         6.3358581762         3.7884949998
Ar         4.1274050424         5.8974932908         4.0332072477
Ar         3.7500779333         5.7257030872         3.2557921168
Ar         3.2745267429         0.3449236758         3.7899364525
Ar         2.6641119990         0.9795560833         3.7599788409
Ar         2.9135513607         0.5729265715         3.0192397742
Ar         3.2116354206         5.7896852161         0.3260677771
Ar         3.1975397245         5.3655162010         8.8344341393
Ar         2.5962599652         5.1787023375         0.1702637958
Ar         4.4615277543         6.2408587273         6.4762008777
Ar         3.6701174198         6.3499675633         6.8477205280
Ar         4.1952650899         5.6946054221         7.1141455703
Ar         5.4444759089         6.5210194899         2.8017126833
Ar         5.5702462578         5.6494361177         2.7736741815
Ar         5.1256840144         6.0090388846         3.4439817068
Ar         8.2937751560         3.9605177091         5.3380741312
Ar         8.4171897746         4.5687790901         5.9634131144
Ar         7.7716889223         4.6694037249         5.3722572608
Ar         4.6225215471         8.5700926379         2.7108295442
Ar         5.2703076298         8.5615628081         3.3079579617
Ar         4.5195242205         8.9899107817         3.4785574828
Ar         1.6419369016         2.7650579834         3.9807021923
Ar         2.3940849115         2.3304854754         3.8334540550
Ar         2.2277959873         2.6655121368         4.6311802239
Ar         2.6372655017         0.9288236347         6.6034161677
Ar         2.7493005396         1.2935049953         5.8092388741
Ar         1.9915310593         0.8890359530         6.0053309933
Ar         0.9727425505         2.4959185376         1.6546965804
Ar         0.5475495566         3.1986696495         1.3359275209
Ar         0.7037229865         2.5049112863         0.8157630237
Ar         7.7090950988         2.4020178261         4.2418470999
Ar         8.1372096793         1.9287381330         4.8492893925
Ar         8.0149911875         2.7929178008         4.9697802754
Ar         8.1815396322         0.6076218931         0.0287402082
Ar         7.6404002943         9.2526997081         9.0268857625
Ar         8.0980870787         9.1428246836         0.4912059009
Ar         0.4341832589         8.8918373356         6.7380403953
Ar         0.5076098242         8.0301404117         6.9064116183
Ar         0.9550768305         8.6135515542         7.3918666911
Ar         4.5904492426         3.2594305999         1.0671431564
Ar         3.8421847776         3.0904051328         1.5004935905
Ar         3.9483745820         2.8007405065         0.6752178545
Ar         7.3809266024         5.3269560690         7.8929249312
Ar         8.2270552368         5.2860474739         8.1351123209
Ar         7.7106533812         5.9290085293         8.4452608722
Ar         9.2426050430         8.7851337555         0.1338797378
Ar         0.5887935832         8.2370251816         9.1260128445
Ar         0.7741307441         8.8268297260         0.4732711126
Ar         6.6033590467         7.1438702458         5.8659654952
Ar         7.3161483357         6.6867097649         6.1092711361
Ar         7.0994364884         7.4256553493         6.5373567731
Ar         7.8052846511         8.9265667354         3.2398822863
Ar         8.0618649336         8.9712216090         2.3981968241
Ar         8.6613518723         8.8784611957         3.0371591237
Ar         5.7215953267         2.9431080270         7.8881072041
Ar         5.7570409511         2.6730108355         8.7259932546
Ar         5.9841230414         2.1233211114         8.0759649150
Ar         8.2227813031         4.3306377153         4.1232993983
Ar         8.7802922415         4.4569312875         3.4528567103
Ar         8.4727649632         5.1470776122         3.9060530586
Ar         2.9941869184         2.9079477494         3.2809222418
Ar         2.3355517182         3.4911498333         3.3292638707
Ar         2.2852394893         2.8154990166         2.7660351771
Ar         7.0403718560         4.8885424233         0.6491363845
Ar         7.7920748103         4.4400985563         0.5486243501
Ar         7.2412360153         4.5349130255         9.1480298304
Ar         5.9147959853         3.8079000172         3.1704068996
Ar         5.2027404076         4.3131655974         3.2884977714
Ar         5.1756327763         3.6392989416         2.7215490812
Ar ******************** ******************** ********************
Ar ******************** ******************** ********************
Ar ******************** ******************** ********************
Ar         8.9693787597         8.0752068786         3.7575961554
Ar         9.1342448189         7.3527936345         4.2342513716
Ar         0.2875085241         8.1007689255         4.4035736609
Ar         0.3294639069         6.2078973387         0.1608191629
Ar         0.8631251185         6.7118496808         0.6481585333
Ar         0.7237158926         5.8715411428         0.8733441001
Ar         7.8585197410         1.6918482075         1.3354000286
Ar         7.1829753778         2.1895889784         1.0667816160
Ar         7.5809106307         2.3635899830         1.8333539190
Ar  28494474.7401602566  80536497.6238606870 ********************
Ar -81053065.2585205138 ******************** 200896504.9810399711
Ar  52558651.5908766836  51255149.3924184591 -21892308.7697840333
Ar         8.6359124848         3.2925749075         7.0190910124
Ar         9.0961063565         2.7209365105         7.5066492696
Ar         9.0921822785         3.5764303662         7.7173072138
Ar         5.4823617527         3.4739082327         0.0040977492
Ar         5.9875436953         4.0746709434         8.8843960896
Ar         5.3458197512         3.6698912376         8.4365058242
Ar         4.8235959253         0.1467029047         6.4096763011
Ar         4.7499587227         0.8374973458         5.8677883810
Ar         5.4912221888         0.3613487136         5.8763243913
Ar         5.2051524863         2.3616636697         7.2712553395
Ar         4.8347358575         3.1601474650         7.3096878844
Ar         5.3543917230         2.9478157627         6.6306187095
Ar         3.5060110073         1.1311330351         4.5421613174
Ar         2.8660683682         1.6577281915         4.8412146179
Ar         3.7104580303         1.8719509883         4.9730349483
Ar         1.4317897778         2.9397155523         7.5909923638
Ar         0.9184522641         3.5234465318         7.1762579262
Ar         0.8113633064         2.6610856546         7.0309046208
Ar         2.8653344835         6.8811937757         6.5654561889
Ar         2.7907624620         7.6872400938         6.2176196503
Ar         2.4699858745         6.9895980910         5.7855780627
Ar         1.0072575117         0.2627681926         9.0865306876
Ar         1.0376162138         0.7885825385         8.3802307984
Ar         1.1285203215         9.1978753065         8.2851058355
Ar         5.8409887970         1.5918300552         9.0725755329
Ar         5.4730756099         2.2111034674         0.2994538814
Ar         6.3074177614         2.3001761794         0.0307511891
Ar         5.7732486022         4.1923429069         1.4545080124
Ar         5.6163431709         4.7750019014         2.0964979523
Ar         4.9450686448         4.4229673466         1.6473609012
Ar         2.0030860287         4.5511016539         3.9331811102
Ar         1.2538559063         5.0123128760         3.8862732575
Ar         1.8431353553         5.1920982749         4.5161056547
Ar         8.0682126364         1.5570880962         8.2448876219
Ar         8.3286049865         1.9023284910         7.4772504650
Ar         8.5763722496         1.0867237054         7.7001004620
Ar         4.7658560386         2.2951198637         8.4870784333
Ar         4.8074471116         1.4542495612         8.7468268264
Ar         4.3142075733         1.6766368611         8.0514704084
Ar         0.0097016305         2.7481877572         0.0274599497
Ar         8.8389937875         3.3951369958         8.9153012186
Ar         9.2721272907         3.5529381093         0.3856682462
Ar         5.4738209413         0.1371546534         1.2701244542
Ar         6.0029493012         8.9567090731         0.7373562057
Ar         5.1295893847         8.8503791375         0.6904700852
Ar         8.5928689230         4.7380867631         1.1053703250
Ar         9.1444798794         4.7008064295         1.7913713748
Ar         9.2510681788         5.3198013896         1.1735153314
Ar         0.6568372501         0.3091621598         5.9588144021
Ar         0.3311715931         9.0721091518         5.3244849649
Ar         0.6370927980         0.5934675799         5.1251223206
Ar         3.7990201624         0.8996584745         5.5128098459
Ar         3.7204252432         0.9138717264         6.3902394613
Ar         3.2150595551         0.3739180594         5.9113684184
Ar         7.7961217384         4.4463447697         2.7442129010
Ar         7.2002499961         5.0808698388         2.8805093367
Ar         6.9433504713         4.2399600996         2.8245150909
Ar         0.9676255993         5.8402502812         2.6202141497
Ar         0.8124502040         6.4126533649         1.9686489461
Ar         0.5485672169         6.5966948978         2.7888662322
Ar         3.3871735251         2.8926656190         5.3430741522
Ar         3.1534609777         2.5471120491         6.1191109337
Ar         3.0579717101         3.4110242479         5.9748908977
Ar         3.1989931532         3.0962902525         4.2294771170
Ar         3.0638550097         3.9661556218         4.1929553944
Ar         3.7281804102         3.6042055969         3.7413738929
Ar         6.3858226418         5.2777430423         4.6797839177
Ar         5.6456939822         5.4141992851         5.1378790768
Ar         6.1266598850         4.6904628311         5.2832725504
Ar         3.4986492485         2.1155303865         3.8953029970
Ar         3.6862080384         2.0572667030         3.0364147888
Ar         4.2208055735         2.5053267637         3.5746615498
Ar         7.4703067717         0.6800758758         1.2775413333
Ar         6.8225016355         1.1285047268         0.8831785697
Ar         6.8309303119         0.2480275787         0.8523426475
Ar         8.3234850123         7.1527621865         2.8496061937
Ar         8.5070970373         7.7767457919         2.2553057662
Ar         8.0709574312         7.9847502610         2.9920406538
Ar         7.2896543734         7.4611138201         7.6190221353
Ar         7.6824536320         6.7361025110         7.3086525826
Ar         7.1362331290         6.6805306073         7.9977221227
Ar         7.6182689325         8.9928529432         7.3718497513
Ar         7.4735001762         8.4634276899         8.0610614946
Ar         6.9033081144         8.4782856499         7.3895541123
Ar         5.8532302004         7.9250477817         5.5882769258
Ar         5.6077416787         8.3816632036         4.8758868304
Ar         5.4161295670         7.5238632659         4.9369276067
Ar         7.7557305956         7.4324159788         0.9578530121
Ar         8.2436760434         8.1624191054         1.0304242407
Ar         7.3722797179         8.2245549947         0.9161023868
Ar         3.6673584558         4.1679019886         8.2155050307
Ar         4.5435707105         4.2596986278         8.2061577071
Ar         4.0257430734         4.9616485091         8.0821302527
Ar         1.7504788489         0.2563497888         0.7161868114
Ar         2.2170760496         0.9180712785         0.3688057143
Ar         1.3373229853         0.9619609649         0.3880450564
Ar         4.3908266193         7.7737034115         6.4111322786
Ar         4.6149912071         8.1743910081         5.6591604717
Ar         4.1555215377         8.6111230873         6.2710547697
Ar         7.3016560139         3.4550396124         2.1717823160
Ar         6.8681591094         2.8868474779         2.6870492760
Ar         7.7487063752         2.8737089251         2.6601085655
Ar         4.7422891584         4.9249184399         9.0452967975
Ar         5.0989510131         5.3758505422         0.4324454076
Ar         4.2577578371         5.1173211343         0.4750891906
Ar         3.3678791505         3.9201513879         2.2540206746
Ar         3.9814388908         3.4411893343         2.6668180866
Ar         3.2701066237         3.0475975956         2.3271802486
Ar         3.2331908924         3.4305922259         7.0769399821
Ar         2.4131623915         3.5130532191         6.7654670902
Ar         2.8172608711         4.2054099507         7.1309920359
Ar         1.9618499661         0.4725718161         7.7153665502
Ar         2.8070119942         0.2976325895         7.5382809099
Ar         2.5493960128         0.4292928460         8.3704837082
Ar         2.2332920391         2.1543893882         6.2477175212
Ar         1.4375389175         1.8476170843         6.4689179722
Ar         1.5839571402         2.1441950601         5.6522998732
Ar         4.3947930387         8.2075215409         8.0300119065
Ar         4.2334394047         8.0332539375         8.8784561993
Ar         4.4579315648         7.3814480436         8.3298085364
Ar         6.8503361782         4.4430343279         4.3087683041
Ar         7.3546106389         3.7749622715         4.5838117504
Ar         7.4049235735         4.0499214353         3.7482712202
Ar         0.2198580633         7.4231164031         7.7437921369
Ar         0.0533233232         7.5302955136         8.6023029015
Ar         0.5241113577         6.8379377955         8.3279649210
Ar         7.7661217480         5.1257464672         1.9169112740
Ar         7.7344336238         4.3376383164         1.5243003775
Ar         6.9927624274         4.7171608262         1.8109158125
Ar         9.0560977095         1.3961699607         4.8372100097
Ar         8.4398498309         0.9827209717         5.3121420001
Ar         9.2357405255         1.1333475787         5.6587419688
Ar         8.2268573542         6.9404138727         5.8713509430
Ar         8.9122834551         6.3927162906         5.7908504280
Ar         8.1108555553         6.1368902622         5.5290713697
Ar         3.6093508128         2.4884593169         8.2665625141
Ar         2.8435952930         2.0566784603         8.2078625701
Ar         2.8580390007         2.9363618136         8.1608467428
Ar         6.9759326237         6.2815098989         0.8308759971
Ar         7.6874162142         5.9513395188         1.2321745482
Ar         6.8829223074         5.6814526342         1.4692663748
Ar ******************** 147307828.0121363401 -48676865.1305640861
Ar 199938181.1252888143 450376599.1627063155   9182380.9242995083
Ar -23766395.0640957989 ********************  39494501.8872235194
Ar         8.8520858637         0.6516248559         2.7961243527
Ar         8.6254835216         1.3628981431         3.2641025638
Ar         8.4159919988         1.3125588885         2.4097951457
Ar         4.8537643176         2.3358062278         4.5803842396
Ar         5.3473099921         1.7840022997         5.0580734722
Ar         5.3928948913         1.7666110153         4.1783681353
Ar         5.0322285912         7.8489248783         7.2751080129
Ar         5.2144163310         7.1336630325         6.7939946934
Ar         4.4528801245         7.1864133473         7.2339286943
Ar         3.3639938257         8.8811495058         6.8368222054
Ar         3.4028702318         8.6662611220         7.6903873864
Ar         4.0301785290         9.1723145630         7.3344995805
Ar         3.0215979447         5.2122627131         4.0550413604
Ar         3.4476233620         4.6691515685         3.5075063942
Ar         3.7949519492         4.8639084297         4.2934418452
Ar         4.5888434817         5.8972689457         2.3797247139
Ar         4.7159325398         6.4829529915         1.7339039368
Ar         3.9106452842         6.3683480560         2.0724893195
Ar         4.9687742218         6.1959494878         8.4651310371
Ar         4.6805398392         6.4413621746         9.2607160140
Ar         4.1778494580         5.9304456443         8.7483405751
Ar         3.6304436178         6.6875066120         8.9203283022
Ar         3.1719101495         7.2336893160         0.1572493891
Ar         2.7541875619         6.6124006698         8.9732086097
Ar         3.8288082132         4.1540973915         0.7996427486
Ar         3.7225283666         4.5421293798         0.0158075155
Ar         4.3995369790         3.9939539208         0.1478109831
Ar         6.1242415061         6.1091286590         6.1204837367
Ar         6.4352450791         6.5579846244         6.8119076370
Ar         5.8328518318         5.9262752820         6.9316055612
Ar         8.6165971217         1.7982667871         9.2059865119
Ar         7.9213581583         1.5167504083         0.3877429830
Ar         8.0788384449         2.3801969631         0.3107889683
Ar         0.8177333300         5.0914238945         7.3054153678
Ar         1.6948519271         5.0877761451         7.3885512285
Ar         1.3116809803         5.6028774215         6.7851337875
Ar         4.5796880817         0.4136115217         4.3883259794
Ar         5.2437724047         9.1586928367         4.1678424556
Ar         4.6944611554         8.9341079777         4.8190572424
Ar         2.7355750622         1.6631986352         2.7196542512
Ar         3.1580432699         1.3746172117         2.0023654037
Ar         2.6418853906         2.0869337112         1.9528865305
Ar         2.3059352046         3.7876712312         2.3074150765
Ar         1.5959265331         4.2463576845         2.5559232994
Ar         2.3881986972         4.4488686925         2.8838806398
Ar         0.2688595118         3.5208450337         5.2754935308
Ar         0.1437772134         2.6859809660         5.0232668114
Ar         8.8701868589         3.3155085355         4.7531294550
Ar         1.8204732583         7.0447134156         2.7600776031
Ar         1.1549706482         7.4210067841         2.3221603794
Ar         1.9706607755         7.4456454799         1.9900392243
Ar         1.0297977339         1.4614085198         4.4914744600
Ar         0.7036631737         1.8716231606         5.1997273159
Ar         0.9245563425         2.3361290578         4.4843935505
Ar         6.4844581792         0.8315316957         2.0532501215
Ar         7.3401844074         0.8607828457         2.2609491865
Ar         6.8429653148         1.5839370124         2.3389436474
Ar         1.7833864036         5.7873958020         1.4480945226
Ar         2.0282016101         6.6328566380         1.4090637937
Ar         2.6387329534         5.9980188295         1.4312977748
Ar         5.7296350808         0.6112118571         8.4330922812
Ar         5.0159596929         0.4363249787         7.9469401124
Ar         5.8027970283         0.1242398268         7.7024983527
Ar         0.8910789254         8.0601880565         5.2234590459
Ar         1.5481295866         7.9388945930         4.6491470761
Ar         0.9216564794         7.3257505278         4.7377343909
Ar         1.0587647720         0.7024860324         7.3833844370
Ar         0.7747412701         1.5320647441         7.4693595619
Ar         1.6093569617         1.3741989179         7.2353575614
Ar         0.0287038175         9.1576383038         1.9124022682
Ar         0.8508412214         8.8814353090         2.0675277188
Ar         0.4422298431         0.1182535952         2.6520887352
Ar         3.2180820785         3.4670377132         9.0629830392
Ar         2.5142269936         3.9596395358         9.2584142921
Ar         2.7122682040         3.2582694601         0.4730419643
Ar         7.8233460157         6.1743728012         3.3245567980
Ar         8.2151670320         5.5705877118         2.8164409073
Ar         7.4794342140         5.9686906724         2.5399030906
Ar         8.4835597982         6.9643484523         9.2245650568
Ar         8.8031677581         6.5176266967         0.6329727572
Ar         8.8821795584         7.3945718812         0.6015691124
Ar         1.6603299503         4.4319224683         0.2892469272
Ar         0.9694970932         4.9702732759         0.1933809490
Ar         0.8627794851         4.0989527809         0.1180559416
Ar         8.1653956502         7.5166189108         8.3942907990
Ar         8.5220051059         8.2640165866         8.0934780398
Ar         8.1349416435         8.2478778230         8.8847955059
Ar         3.7733682556         4.7843577783         6.9397052566
Ar         4.4259301666         4.2157063392         7.1042057163
Ar         4.4108387780         4.6610628316         6.3441453532
Ar         0.4302491578         2.7586534584         2.5002880131
Ar         1.0105575087         3.1093936122         3.0628584333
Ar         1.0525541906         3.3083326537         2.2055828374
Ar         1.8605217445         4.8340654227         8.5078794527
Ar         2.6655691420         4.5726208986         8.2633240139
Ar         1.9959247607         4.0000729679         8.2581105334
Ar         7.5465041890         7.6691596623         5.5406161765
Ar         6.8927705632         8.2588650151         5.5068248437
Ar         7.7294765787         8.5238043903         5.4294163213
Ar         7.4234121337         7.1255711638         4.6657230034
Ar         8.2185121574         7.4645945360         4.4950156037
Ar         7.6894117939         7.2267249963         3.8318920840
Ar         4.0627687278         1.2116488880         3.5295064004
Ar         4.4586702093         0.6204438585         3.0098906294
Ar         4.8592096747         1.3832636410         3.1941079653
Ar         0.0240410887         8.7676924141         8.4516488729
Ar         8.7647273412         9.2520550535         7.9513605947
Ar         9.2621060327         0.3597528652         8.5663420376
Ar         3.1357354234         8.3571444673         8.8107914909
Ar         3.4464152449         8.4466580821         0.3499112880
Ar         2.9925282860         9.1031343421         9.2571688350
Ar         8.3009455717         5.8967837782         7.3120185858
Ar         9.0383193671         5.4253063007         7.4132647460
Ar         8.9116217991         5.8922599753         6.6769469432
Ar         5.4240427350         7.2479222569         8.7043363067
Ar         5.1992045433         7.6452812088         0.1774017828
Ar         5.4208590220         8.1275375796         8.7546220781
Ar         1.0119356574         1.3087057521         3.0979209522
Ar         1.6302074836         1.8623422763         2.8021364614
Ar         1.6549869337         1.5791492604         3.6360726739
Ar         3.5945020823         8.8264080592         2.8408420019
Ar         3.5552771502         8.5572708977         3.6788685590
Ar         3.0654828322         8.1583532042         3.0646795729
Ar         5.4409234142         4.5606474178         7.3993475896
Ar         6.1127261947         4.1970579846         7.8383756770
Ar         5.7341607413         3.7613242382         7.1727284652
Ar         0.2448854860         1.3972442194         0.7234416008
Ar         8.7190212439         1.1539197978         0.9820540440
Ar         9.2537527355         0.5685743046         0.5977432372
Ar         4.0266680518         0.5429039519         9.2514195361
Ar         3.9729976366         0.6949026274         8.3852337614
Ar         4.1920148577         9.1741864017         8.6791626033
Ar         3.3456167266         5.2226325261         2.1696640869
Ar         4.0710571301         4.8440811094         2.4963090880
Ar         3.9825838724         4.9488576963         1.6259894534
Ar         6.9136656293         2.6573126685         7.4924463168
Ar         6.6497660688         3.2851594971         6.9334943542
Ar         7.4469828651         3.3332483165         7.3055088110
Ar         3.1646630281         8.7337506795         5.4360177948
Ar         3.5990777287         8.7934073492         4.6718274668
Ar         3.4603997703         8.0047532760         5.0393258853
Ar         2.0453609511         2.0206628884         0.1650531704
Ar         1.9334761462         2.1991905716         8.5900281422
Ar         2.3089442282         1.4411860033         8.8364316876
Ar         5.9471124334         3.3649334402         4.9584043413
Ar         5.8897662163         3.4809457454         5.8299056133
Ar         6.6321076093         3.6926649989         5.4052102777
Ar         7.1867104346         8.6759440398         2.5025158602
Ar         6.6733527546         8.9197495814         1.8292516765
Ar         6.4209020040         9.0831411736         2.6574024637
Ar         2.0281112986         6.8068116052         0.3028322150
Ar         1.7775252226         6.5080810520         8.7932207330
Ar         1.3409757574         7.1734345578         9.1713624770
Ar         1.3884551280         3.9995143472         4.9565421999
Ar         2.2268944949         4.1800102570         5.1582909675
Ar         2.0418329670         3.6339558364         4.4920787575
Ar         6.5466948968         5.0147401421         6.1743101562
Ar         6.9533074634         5.6156454829         6.6741510336
Ar         7.3934952323         4.9064341174         6.3921654228
Ar         6.2733910225         8.5405584733         6.5795007964
Ar         7.0078019529         9.0272709743         6.5831665128
Ar         6.3707737705         9.1954478571         5.9982105005
Ar        19.6806338084        41.5921317438        45.0862839295
Ar        -2.0540900991       -27.5138506195       -27.9943416534
Ar         7.1386483291         2.2658629656         1.5536410267
Ar         4.5164832470         8.8001039759         1.5731544265
Ar         3.9126097039         8.1665132582         1.6739584801
Ar         4.3195016574         8.2680161619         0.8991049361
Ar         1.9611913358         8.2540933576         3.5198860065
Ar         1.8649584935         8.5232370575         2.6864816547
Ar         2.3376277930         9.0046817170         3.2531002954
Ar         0.2127990611         1.6868511804         2.2809738363
Ar         0.2100475123         0.9611848226         1.7813112679
Ar         0.9738967483         1.3383458364         2.0061352546
Ar         0.9056092890         3.0918262251         0.0707344687
Ar         0.7071334046         3.3998836057         8.5499741341
Ar         1.5349630806         3.4477783426         8.8477425470
Ar         2.8743859404         8.9933935312         1.8631808782
Ar         3.4696015762         8.9459704513         1.2153141411
Ar         3.3431052403         0.4255853746         1.6425513712
Ar         0.0180579010         3.1763164855         6.1970296541
Ar         8.6950261190         2.5676953517         5.9930003685
Ar         0.1947176919         2.3220287091         6.3205028613
Ar         1.6148788780         7.9708588482         0.7028092016
Ar         2.3646741085         8.3879343774         0.5025168502
Ar         2.2635293189         8.0206881199         1.2969737856
Ar         0.4165656425         4.5741444923         5.4030582745
Ar         8.9754073310         4.7955979927         4.9486652879
Ar         0.4927916546         4.9188236940         4.5958112484
Ar         6.0958604797         1.1413447179         5.1659732148
Ar         6.8449878672         1.4461877489         5.5154596876
Ar         6.8685349903         0.9469416572         4.7898835118
Ar         2.6231213762         6.0047265164         7.1777912369
Ar         2.8463000151         5.1590293637         7.2838550469
Ar         2.4562202719         5.5974560404         7.9410321540
Ar         6.0050490474         6.2059178121         8.5284696138
Ar         6.6564385285         6.0463405576         9.0998615665
Ar         5.9527169883         6.5121670898         0.0724599317
Ar         6.4065589036         2.6751169282         6.1604285271
Ar         6.4721722712         2.3145563360         5.3592089217
Ar         5.6827321385         2.3980737202         5.7414013322
Ar         5.6619515110         0.8523220146         0.4470808610
Ar         4.8222023149         1.0625856004         0.6110089854
Ar         5.0170323183         0.5033865984         9.2390988886
Ar         3.9090019847         6.8454928342         2.9834625003
Ar         4.6324269405         7.1020264806         2.5509018236
Ar         3.8759271846         7.5406026495         2.4431012203
Ar         0.2471622100         4.1685269779         6.2889672303
Ar         0.1971777766         5.0214005903         6.5043043131
Ar         9.2621408729         4.4044780087         7.0952571449
Ar         1.6656329602         4.8087278067         1.3065639157
Ar         0.9908322452         5.0915847827         1.7973773600
Ar         1.0881235986         4.2308398390         1.6363977311
Ar         5.6820662480         6.0363313225         1.8231295343
Ar         5.4855050507         6.2032501727         0.9806547846
Ar         5.2595356463         5.4317660041         1.3412264457
Ar         8.3212624523         8.1342091008         5.9753206610
Ar         8.9834700750         7.6721183961         6.3277623605
Ar         8.4969147841         8.2024287131         6.8359914770
Ar         8.8454633370         6.4882593172         1.6070051558
Ar         8.6714515153         6.3506258960         2.4596708781
Ar         8.0551711659         6.6985248420         1.9348597073
Ar         2.7394647957         7.2934907563         3.8595243795
Ar         2.6248797753         8.0717238124         4.2563688041
Ar         2.3820255693         7.3293596196         4.6640195845
Ar         2.7750718485         6.4258575711         2.2997225588
Ar         2.9569475384         7.0549942110         2.8891037899
Ar         2.9110210313         7.2542014834         2.0320920459
Ar         5.6239780851         5.0767454544         8.5028742156
Ar         6.4613596551         5.2707972852         8.3094888560
Ar         6.2211870117         5.1420376848         9.1473432451
Ar         6.7258407080         3.7009701636         1.1374210006
Ar         7.2389324838         3.0866642728         0.7691452764
Ar         6.7802314574         3.6405173291         0.2601245787
Ar         8.6231972359         6.0625082210         3.7845013715
Ar         9.2762487402         5.9035130896         4.3541558251
Ar         8.4393390986         5.8931807424         4.6293601177
Ar         4.3697557748         3.2549770271         4.6127518267
Ar         5.1966281160         3.3712887078         4.3316546324
Ar         4.6682209104         4.0669815817         4.4459313337
Ar         3.0563109670         4.7155162556         0.9533622597
Ar         2.9957971591         3.9257458846         1.3391896164
Ar         2.6014248330         4.6248726591         1.7024445343
Ar         3.2443592475         2.1062157506         0.2200656921
Ar         3.5597293657         1.4464044869         9.0091572264
Ar         4.0264032747         1.7487422704         0.4121119622
Ar         5.4896445800         2.4605330709         2.5294771603
Ar         5.2173833255         2.1798665089         1.7399443839
Ar         4.7303304512         2.7563853834         2.1945512376
Ar         1.5794838248         5.8577297644         5.5555691352
Ar         0.7708626069         5.6002779454         5.7924492793
Ar         0.8967636387         5.9987616956         5.0168066156
Ar         0.6225217572         6.0410613327         7.6558461639
Ar         1.4680400035         6.2525856547         7.7847580323
Ar         1.1173978386         5.5626512157         8.2058310103
Ar         1.6429836211         2.7757334290         0.7304157720
Ar         1.8434846932         3.1395476733         1.5073973872
Ar         1.4063513243         3.6069308563         0.9018156075
Ar         0.5902322558         3.7267596758         4.1573720336
Ar         0.6434114211         4.2795215987         3.4733485367
Ar         1.3467754024         3.8060335354         3.7128272853
Ar         2.8344067896         5.1316397679         5.3087885980
Ar         3.6314074604         4.9188861041         5.6182845226
Ar         3.1176702322         4.2987371834         5.2608614018
Ar         1.5099559008         6.5453493560         4.4091882712
Ar         1.2969783485         6.3205345897         3.5843484134
Ar         2.1396859088         6.3066833316         3.8410856743
Ar         5.9920920634         2.8140077264         1.0260955919
Ar         6.3516062915         2.3824183456         1.7048754044
Ar         5.8478363601         3.0905032282         1.8501116357
Ar         5.8521567938         6.3816986468         4.9506633398
Ar         5.1015488572         6.4587306451         4.4957834573
Ar         5.8103262501         6.0964244753         4.1181185898
Ar         4.1547060267         7.6236473734         4.0194646219
Ar         4.4449837934         6.8239686215         3.7903039218
Ar         3.8957006791         6.9142350312         4.4732401900
Ar         0.3391531631         5.1075478481         8.6823678478
Ar         9.0079825016         4.4912415344         8.5329547613
Ar         0.5542803583         4.3680059946         8.2545126782
Ar         2.8486690757         7.5955899812         7.4752117656
Ar         3.0661251082         6.8758442059         7.9344946854
Ar         2.2501797111         6.9640781774         7.6140110195
Ar         0.5624642717         2.0866665966         8.5340990346
Ar         0.0776784973         1.3688904919         8.3727233278
Ar         8.9781178725         2.1636881647         8.3843580504
Ar         5.7912299710         7.9795669082         1.3106061058
Ar         5.4858453378         8.3369409444         2.0557812092
Ar         5.0147213882         7.7213044132         1.6370977959
Ar         8.6618109134         9.0940878084         4.7167758438
Ar         7.8548641984         0.1602970329         4.6466865831
Ar         8.4605743805         0.3256468735         4.0285955572
Ar         6.9961095738         5.8994518808         4.2110044252
Ar         7.1240700472         5.9560803781         5.0808786907
Ar         7.4299255127         5.2604597374         4.6349792861
Ar         8.4408524305         3.3687146900         3.6132382222
Ar         8.6136897691         3.6252581011         2.7882687458
Ar         9.2711797388         3.3749380966         3.3186542149
Ar         0.0650286738         8.3061256449         1.1126226973
Ar         0.3843501798         7.4870423236         1.1709167726
Ar         0.3268759076         7.9898256179         1.8921432100
Ar         7.6558106909         3.1741465599         9.1980564519
Ar         7.1281921462         2.8018700549         8.5986477571
Ar         7.9425369382         3.0520991214         8.3739482137
Ar         7.9956692164         2.3585406903         6.6506993009
Ar         7.4004395013         2.8354566013         6.2096610851
Ar         7.7204525032         2.0944254665         5.8564947806
Ar         4.1749043486         7.3182645937         0.5218561122
Ar         3.5679889021         7.1496914716         1.1378907285
Ar         4.0345561468         6.4898353069         0.7869395084
Ar         6.1499410699         1.3078863249         3.0567176770
Ar         5.7194066260         1.4668948883         2.3046416951
Ar         5.5830485084         0.7127683733         2.7393388011
Ar         1.6739401405         0.2989060269         2.7202165601
Ar         2.1989192796         0.8855847710         2.3246576322
Ar         1.6739328228         0.3682917693         1.8418957070
Ar         8.8636465190         1.5345371983         6.6379602138
Ar         9.0094708986         0.6984142645         6.8743827184
Ar         0.3922649776         1.1923618337         6.5704771354
Ar         2.0385214204         3.2462570599         5.5788089358
Ar         1.6180682814         3.7269094093         6.1858133770
Ar         1.1629547267         3.1880063262         5.6578768033
Ar         4.9409719311         5.9284885562         5.5746363654
Ar         5.1370356440         5.2509746154         6.1026475284
Ar         4.6681569157         5.1163733051         5.3689601705
Ar         0.6699333827         6.9869659761         5.9154078019
Ar         0.3996930326         6.7219536857         6.7110211187
Ar         1.2610452044         6.7771748460         6.5341455531
Ar         6.2284500664         7.5881574544         6.9614073270
Ar         5.7657037338         7.2479301551         7.6295189399
Ar         6.0420119032         8.0837616422         7.6655942426
Ar         6.7614730293         1.2929384777         6.5707668590
Ar         6.8796932498         1.6586812389         7.3635582112
Ar         6.9808449811         0.7896182474         7.2598289732
Ar         0.2946510318         1.8769984893         3.8948220264
Ar         9.0438882137         2.2951263570         3.3298239666
Ar         8.9418482286         2.4095896378         4.1974344289
Ar         1.4190990544         9.0518193677         4.8540625872
Ar         2.2324945182         0.0945592787         4.7531410413
Ar         1.5339893500         0.5796624091         4.5228642650
Ar         0.9419223311         8.3740834267         3.5180954421
Ar         0.4286332619         7.8275876322         3.0553443427
Ar         1.1364810265         7.5157494682         3.4772097408
Ar         4.1333785876         3.8398140707         5.5937257370
Ar         4.9511178561         3.5965451978         5.3737606073
Ar         4.3779760822         2.9969008506         5.6707405303
Ar         5.7188506102         4.2624680775         4.2972834446
Ar         5.3348461576         5.0529228970         4.2341671278
Ar         6.0944526942         4.8975059589         3.8157111569
Ar         4.0223639182         6.5702893364         5.6446790659
Ar         3.8294643203         5.9308405706         5.0700862260
Ar         3.2907333306         6.0905427286         5.7487069280
Ar         6.0381439756         2.6465955430         4.0049410310
Ar         6.7097323003         2.3319151083         3.5293285286
Ar         6.6575538113         3.1945099791         3.7009950804
Ar         1.4707576218         8.2925036952         8.3140336867
Ar         2.2119360606         7.8734971637         8.0874283856
Ar         2.2438341771         8.7134772804         8.3513939738
Ar         8.6635489929         2.8422118782         0.9949950222
Ar         8.5603259783         2.8904015844         1.8686566666
Ar         9.0533118239         2.2498948931         1.5179744056
Ar         7.7797480153         0.6442279406         3.2677339738
Ar         7.6829236069         1.0961560975         4.0178325578
Ar         7.1453170323         1.2516114289         3.3373366141
Ar         7.0043882221         0.3860828326         8.3234200864
Ar         6.6879095332         1.1162144042         8.7015880951
Ar         6.4944975432         0.3258156409         9.0394098014
         600

Ar        13.0125801986        -3.6767422618         4.5317630390
Ar        -1.1785489612         5.1807699162         3.1794784099
Ar         1.3552234563         7.9120413875         4.0245774785
Ar        19.2495770169         7.1605123820        -2.2607260526
Ar       -25.8323148301        -1.0551145600         3.8053854938
Ar        19.5945939164        10.5877014229         7.5791297709
Ar         3.3800955162         6.3859961318         3.7518766607
Ar         4.2589690975         6.3876314310         3.8138481135
Ar         3.8638268393         5.9392405750         3.1664918383
Ar         2.6599415632         0.5171714649         3.4793334861
Ar         2.7570186100         1.2228610793         3.9978314394
Ar         1.9780005255         1.0566743726         3.6213015974
Ar     -7260.8559792218     -6427.5418438787     -7939.3117383168
Ar      7252.9041898251      6692.1614777590      -188.6756588628
Ar        19.6654377330      -257.6658085996      8141.4715388816
Ar         4.4419933739         6.2559780596         6.5037432108
Ar         3.6521298544         6.3891553343         6.8706782842
Ar         4.1513380682         5.7122880791         7.1331735954
Ar         5.6725591249         6.5012084910         2.6882887129
Ar         5.5869030896         5.6397595024         2.8520891842
Ar         4.8823285836         6.1674459866         2.8892866969
Ar         8.3388771090         3.9641957704         5.3041687060
Ar         8.4656087959         4.5751701148         5.9261906816
Ar         7.8288862403         4.6822924861         5.3267149977
Ar        -0.8623129892         7.0625732175         0.8587347230
Ar        12.7400887565         0.6109319268         9.0105889096
Ar        -2.1743983801         4.8257606424         9.7958746028
Ar        -9.3748400364         8.1489552681        17.9489887686
Ar        24.3002952193        -1.2348584372       -24.1570278126
Ar        -2.3651778791         7.2604783204        16.4763918480
Ar         2.6207617011         0.9539281964         6.6375514633
Ar         2.7121705057         1.3570527958         5.8594789098
Ar         2.0034359898         0.8576994843         6.0163341814
Ar       -15.4365779920         7.3650693841        -9.0745441480
Ar        19.3520595489        14.3973286793        28.5175210968
Ar         3.0703019073        -5.1705740170         3.9159835029
Ar         5.8316234141         7.1143395972        17.9577543723
Ar         5.5235801669         7.0634425558        -0.3292525544
Ar         1.8014768867        -1.5063810168        -5.3401016669
Ar        17.7254464472        16.0192141232        17.6688341297
Ar         5.8819319035        82.6155929411         4.4843599843
Ar        -5.4413516077       -85.2862063066        -3.5613583683
Ar        37.3753434621        76.0198409706         2.5399126701
Ar       -65.2621243033       -25.6663772351         7.1114720126
Ar        42.8112603909       -36.7682097250         3.7900303616
Ar      -315.0079902822      -274.6466762883      -237.2164401612
Ar     13148.9717528416      1031.5800418270     -5584.6432160497
Ar    -12816.1303443944      -739.2971937382      5837.9533896683
Ar     -1087.8854766171      3252.6561929957     -2174.6963654571
Ar        60.8195924691     -1723.7125947648      1478.9454307759
Ar      1041.8919954704     -1518.1359420867       713.0580692138
Ar       -22.5844058142         8.9089945816         0.1587643595
Ar        -0.9024005560        -1.3588807503        24.2323699317
Ar        34.6688007456        10.4748986621       -21.9966156655
Ar        45.9651063475       -40.3562271472        16.4786210375
Ar        -0.8081514630        22.9429819543       -61.2158592109
Ar       -26.0690542735        37.8776494118        61.1734837158
Ar       -39.3754084915        14.6333367002       -64.8746405558
Ar        -6.0536107732         4.2892782123        12.8226935932
Ar        58.5944675625        -8.7620446203        70.6323799147
Ar         5.8089490851         2.9367268517         7.8098550539
Ar         5.6512598290         2.7381571904         8.6536358897
Ar         5.9615295501         2.1212438075         8.1064499213
Ar      -898.1840794815       994.7736600755       262.9839026450
Ar       536.5924449129      -531.7247280877      -383.3836752331
Ar       374.0938150864      -449.8273170741       129.7436811250
Ar         2.3711661441         9.9161108849         6.2137456731
Ar        17.1889644380         1.5822334306         3.8183311722
Ar         1.6606694534         0.7896117380         4.8303818258
Ar         3.3195081531        -7.4293081061         2.7302821003
Ar         2.3943621155        10.5445628404         8.1847570990
Ar         0.3905467291        11.3166825894         1.3622132470
Ar ******************** ******************** ********************
Ar ******************** ******************** ********************
Ar ******************** ******************** ********************
Ar         2.8211488641         0.3653857090         7.6620860311
Ar         2.4243282065         6.7623233074         8.6870181456
Ar         3.2308099393         8.2202987041         0.9641593646
Ar        18.2650125728        11.7246988836        -5.2280385192
Ar         5.3483201808        39.6459020051       -22.2813496006
Ar        -1.3521236052       -43.6805318033        33.3804116050
Ar         5.9424340294        -2.1404932505        14.3000122701
Ar         3.8157030337        26.7814411143         4.5477375380
Ar        -8.1012012564        -4.8562616225       -11.2328548590
Ar  33396721.7620823272 ******************** -52664437.5466092229
Ar ******************** 104498281.9886531532 ********************
Ar 451322139.3236733079  -2600372.1349171847 343709147.0152637959
Ar ******************** ******************** ********************
Ar ******************** ******************** ********************
Ar ******************** ******************** ********************
Ar        39.3423085928      -672.0996493468      -191.3899122028
Ar     -1131.4092889766       989.5129210641     -1226.5121223637
Ar      1094.8349570889      -309.3231891187      1426.9377610596
Ar         5.4671891152         3.5297362531         0.0354632362
Ar         6.0258137470         4.0618068524         8.8903731422
Ar         5.3626665884         3.6795782405         8.4540257518
Ar         6.0154652203        -3.0530174197        13.1484133441
Ar        10.8628869951        11.8631485492        -3.9529514228
Ar         7.5946016932         3.1745992494         9.0664531000
Ar         5.4535890173         2.5423944817         7.2109262820
Ar         4.8557948377         3.1881535570         7.2545066254
Ar         5.3301071077         3.0757198797         6.5205798880
Ar ******************** ******************** ********************
Ar ******************** 551238662.9318237305 280228905.0987014771
Ar ******************** ******************** ********************
Ar    -13307.4934348391    -31055.5003924099    -13064.1488989074
Ar    -18107.5686543558     -5001.1332369364    -16095.4186448985
Ar     31422.8296514824     36069.6517080322     29174.8920243978
Ar         2.8380652668         6.8881779479         6.5805623957
Ar         2.7538424379         7.6824982954         6.2087780326
Ar         2.4128164227         6.9727278163         5.8135704482
Ar         0.9078603870         0.3306803864         9.1393304017
Ar         1.1986387940         0.7354275779         8.4127703286
Ar         1.1090723571         9.1394630226         8.4228900425
Ar         2.5070805654         4.1180359238        14.5528726581
Ar         0.3023553432         7.3096700259        -6.8289649806
Ar        14.6524824532         5.2717904531         3.0662283773
Ar       -14.2023437146       -58.1226295544       -68.7254506395
Ar        12.7675745847        11.7766937091         4.8047446179
Ar         9.4238196568        58.3906773883        78.0732678676
Ar         1.9869354853         4.7692349195         3.7263249300
Ar         1.1695645622         5.0325737453         3.9233512068
Ar         1.8335535997         5.2062929410         4.4758022103
Ar         8.0329455837         1.5333653438         8.2509860241
Ar         8.2687174567         1.8512636017         7.4638302375
Ar         8.1355545334         0.9865565089         7.5678071240
Ar         4.8008538197         2.2879453598         8.4873607712
Ar         4.7861563494         1.4638324575         8.7986224390
Ar         4.3219591314         1.6713151077         8.0790852264
Ar   7324056.1276077442   2325250.9530203966  31587996.2131317109
Ar   7826414.6492080577  -2772987.2149734423 -24447179.5926783010
Ar -15150453.0431290939    447746.5601363078  -7140806.9600329660
Ar   1434320.9856571604   -501178.1123324083     83010.2595984787
Ar   -333691.7459453198    157822.5647272131    -32090.0626390070
Ar  -1100611.6779488430    343370.5950389950    -50913.9704950538
Ar         3.1788447939         5.8236689929         6.5719760786
Ar         2.4175934352         6.0779942778         6.2085521693
Ar        12.3026390066         5.6632702127        -3.5605424457
Ar       -26.2914517347       295.0919736944       283.3529732748
Ar        29.1484455782       -17.9325418442      -267.7257169367
Ar        14.7823701556      -266.0409417168        -5.4644015399
Ar   4896112.4895629352   7758842.8839300107   -520965.7266122568
Ar     81785.5533454386    100143.8758245790  -3999239.4770578346
Ar  -4977887.1250713579  -7858976.8165840907   4520224.1690588146
Ar        12.2815977696       -13.7595005140         6.4744927557
Ar       -11.7002511808        10.7614552636        11.4622527365
Ar         6.7285725513         4.5222092134        -3.9905880807
Ar     24534.9763961108    -65206.6162664845     40378.7036751777
Ar     39863.8320343025    -81153.9983380238    -14957.2494297946
Ar    -64387.8968516206    146378.0966794807    -25402.4954778999
Ar ******************** ******************** ********************
Ar ******************** ******************** ********************
Ar ******************** ******************** ********************
Ar 140434195.1390067339 ******************** ********************
Ar ******************** 732247370.0906949043 ********************
Ar 883433524.2763926983 253123803.5474476814 ********************
Ar ******************** 665856319.4887459278 ********************
Ar 388513252.7575463653 ******************** ********************
Ar 110627899.1608948112 151545394.6550310552 ********************
Ar         0.9497984792         0.2296038784         0.2200270133
Ar         2.8258144506         2.8048014901         8.1262226204
Ar        10.4728685100         1.9929872008        -1.2514540871
Ar        -4.6360387591         4.4366365322         9.9118158079
Ar        13.7602616602         0.9435699867        -2.1475753746
Ar         3.7833171600         1.6279848148         8.2505201928
Ar     -3844.0799492462      3467.1267467727     -2037.4122278270
Ar      1191.8286402660      -971.9026820790     -5268.9094681045
Ar      2667.9979720084     -2492.7337938238      7320.8939983162
Ar         8.0229107409         7.3883806462         7.8156791679
Ar         7.7562754807         6.9023922829         7.1308559355
Ar         7.2006982921         7.0725946188         7.7931451874
Ar        -4.8821646723         1.7890994145         5.2906673104
Ar        -9.0430017013        15.5537269428        -4.0208832387
Ar        25.7421378542       -13.1372011717        16.0005103856
Ar         5.6803873873         7.9409204515         5.6194475547
Ar         5.5366737673         8.4193711869         4.8937112390
Ar         5.4065437578         7.5480865505         4.8798847767
Ar         8.0392959922         8.4755069160         1.2147537626
Ar         7.3165915008         8.9500241315         1.3844403676
Ar         7.2645666379         8.2369550173         0.8695736248
Ar        74.0086084042      -892.7318355549      -882.2667669173
Ar       221.6556650941      1461.7339406866       531.8420714746
Ar      -286.2814309411      -565.7281170467       367.5712229166
Ar       -43.6527319234        87.8730313268       192.2106855946
Ar      -149.5944133171       243.6036139955       555.5786632516
Ar       209.9880992122      -316.1337164338      -733.4762731549
Ar        15.9312200089         1.8979098194        12.2229840917
Ar        -3.2393366049         0.9555602133         3.8153011591
Ar        -3.4366524013         2.1789726469         1.5400179991
Ar         7.2756884386        10.5251929285         5.8598098672
Ar         6.8174479900         9.8259907530         5.5816122353
Ar         7.6615854989         0.4538430977        15.0972181897
Ar      -153.0489287614       -19.9674735195       514.1965896820
Ar        24.7981530970        31.1982195875      -502.6717794475
Ar       145.5193625645         9.4134638370         3.1114692102
Ar       -15.5468040146         4.7431931071        14.6230334279
Ar        12.4323903297         4.8391764779        19.3111587197
Ar        15.0626333145         5.8620670285       -13.5576710423
Ar     -1630.9470068396      6609.8416335227      1240.1760877676
Ar     -2178.4220245132      -797.3085459849     -1073.9437413728
Ar      3819.6045529750     -5793.5579268198      -154.0739808372
Ar       109.7786575051        -1.4509025451        13.6997932364
Ar       -10.6251680591         9.6241813822        -8.3845464830
Ar       -89.5199862959         7.7511444832         9.4758046750
Ar        -1.5158267118         0.3473872706         8.3892930473
Ar         7.1580850575         9.7211474075         9.0214687185
Ar         7.7798967648         1.0554405574        -0.3670682904
Ar         4.4876550469         6.7755867446         9.0256609945
Ar         4.4067851776         7.3488795291         8.3615394950
Ar         4.9402809465         7.5313814814        -0.2419243367
Ar     -3715.7619393683    -32966.2324394890    -19366.2301395989
Ar      4504.6109173970     24393.3750270494     -8265.2958904239
Ar      -773.9139018182      8576.7334984083     27640.9229551850
Ar        -4.5746971186         7.2113110166        48.0648727624
Ar         7.6801985668         8.3132972678       -26.4745053745
Ar         6.8733134427         0.6506083133        -3.5308505780
Ar         7.7247911342         5.0222914150         1.9273158092
Ar         7.9471096318         4.1724905620         1.9956890995
Ar         7.3603128596         4.4269550854         1.3897359121
Ar       550.4673209138         5.8566031283       113.2731026582
Ar      -932.4122299290       392.4676103631       195.1964338904
Ar       396.7314708998      -386.7873086895      -288.8522767597
Ar         8.2616087031         6.9428110412         5.7480643515
Ar         8.9289826230         6.3678936556         5.7295179863
Ar         8.1003347567         6.0841707516         5.6340929465
Ar         9.6593165136         3.1338083914         2.2149899969
Ar         0.9589962821         3.4419351544         2.8021408957
Ar         9.5409421838        -5.3516230308         2.5757714562
Ar       267.3565085633        39.1142821600       633.0758142538
Ar      -594.9359736371       -51.7660488554      -576.7698141042
Ar       345.5560177802        28.5119525094       -52.2138342745
Ar         9.7752780275        11.5724800737        10.2925280035
Ar         0.1145719456        -4.4051016591        -8.4005482697
Ar         0.9960305448         4.2631935683         9.1361841222
Ar         8.9073488594         0.7227125206         2.7900362404
Ar         8.5619348155         1.3960741682         3.2411849259
Ar         8.4454844750         1.3440151584         2.3694102484
Ar   5267851.5426434930  -4364074.1676773634  14757909.5650435612
Ar  18679910.7379519902 -15594871.7119204700   9289309.9939518161
Ar -23947745.8981824331  19958953.8552947491 -24047214.5868501030
Ar         3.4430579809         3.3566187773         2.9512789660
Ar        20.8896256950         0.9516541108        -0.1507456507
Ar       -14.8261390733         4.6434136946        13.0364856207
Ar        -0.9753478510         4.3901732515        -1.1416017546
Ar        29.3203430325        11.1353409966        35.4853313684
Ar       -15.8771714233        -1.7992159360        -7.7476885077
Ar        -1.1072586846         0.6675201215        -3.4184125000
Ar         6.5254636665         0.6921439615         5.3587658878
Ar         6.5150124569         1.7949381274        12.6372231749
Ar         4.6103075590         5.9118826179         2.3447062661
Ar         4.7304715893         6.4764123375         1.6790271300
Ar         3.9240132475         6.3526362866         2.0115422989
Ar ******************** ******************** ********************
Ar ******************** ******************** ********************
Ar ******************** ******************** ********************
Ar         4.5629053221         3.3713451081         1.8920437928
Ar         3.7119481434         3.4378517554         2.1104714851
Ar        13.5690618882         3.0981412673         2.6834815845
Ar        14.1637473228        -5.4772726966        -1.4534103986
Ar        -0.2291920779         2.5780997313        16.8844287590
Ar         2.8204213099         9.5360735113       -10.8034337998
Ar      1522.7596772749    -11327.9599138138     39164.8581351833
Ar       993.9829797997     13361.0926074244    -17634.6635738947
Ar     -2506.1843548406     -2015.2987212483    -21519.8999167409
Ar        -7.0233093613       -60.3143428937       -81.9215505193
Ar       -60.8846651969      -677.9087522483       608.1201276946
Ar        92.0121298832       744.5095136740      -509.5272376040
Ar         0.8893477940         4.9384015196         7.1521840585
Ar         1.7172170013         5.0684245027         7.4241923493
Ar         1.3748858665         5.5806346779         6.7943415453
Ar        16.1637014114       -32.5493637266       -11.0664550183
Ar         2.5241134879        13.7519971843        13.4287956231
Ar        -6.1195122978        33.1491067352        22.1795337647
Ar         2.7627436001         1.8142309090         2.8079369696
Ar         3.2743163571         1.6809595842         2.1031008333
Ar         2.5467964951         2.1729171468         2.0327125211
Ar 105474761.6792527139 ******************** ********************
Ar -53292439.3149211630  77170532.3105431199  55492549.7691791430
Ar -52182314.1955407262  98998610.9308887422  70334694.6663262248
Ar ******************** ******************** ********************
Ar ******************** ******************** ********************
Ar ******************** ******************** ********************
Ar         1.7991044326         7.0534707543         2.7714892761
Ar         1.2259090912         7.3918975586         2.1942750095
Ar         2.0836602632         7.5812510152         2.1259368860
Ar         9.1432215753        -5.1027989545        16.3937890277
Ar         5.6741848113        19.9398456522        26.9803178090
Ar        -0.1708027763         3.0956330814       -33.3296234474
Ar         6.4781676903         0.8521844139         2.0083362970
Ar         7.2862962079         0.7592172858         2.3467847145
Ar         6.9699073929         1.5636639985         2.1764159695
Ar        10.2999267548        32.3045973483        -0.7691361974
Ar         5.4182478187        -0.0751880501         0.9977580370
Ar        -3.2052815900       -17.6506382314        12.6368296044
Ar        58.3453698682       -30.0333362728       -49.1400609181
Ar       -72.3669088597         6.4482209341        -8.1229733291
Ar        33.3020811962        37.1257660146        70.5696479132
Ar         5.7033830273         9.7692125328         2.2952234829
Ar        -3.0589163741         0.6448939599        12.1930422898
Ar         6.4168567907        10.4071834131         2.1962862473
Ar         1.0387556601         0.9249388517         7.7087155799
Ar         1.1659585765         1.7456285260         7.4145221229
Ar         1.8526876290         1.2035648007         7.5185991912
Ar   -494527.9323486562    821038.7259304012   -371493.7295912668
Ar    886940.9617218968   1229258.3477678406   -120507.5384551975
Ar   -392404.6209858296  -2050281.6021775212    492023.8093631786
Ar         5.6872847501        11.6114037004        -0.2747660524
Ar         5.0770960702        11.3306949111        25.8051320079
Ar        -3.2853530876        -5.0574373497       -10.0448728961
Ar        13.1218155835       -17.9172676997       -20.7264992660
Ar        -1.3140511219        25.7499999360        22.4454882563
Ar         4.8043971747         7.7686051680         6.5470010223
Ar       855.5634395727       254.3988339850       -11.2520898598
Ar      -587.6875991444      -172.7289891563       -21.0516249588
Ar      -252.2045627903       -64.2609698577        44.5656548482
Ar     57498.2024271266     -9285.7816082101     60663.1051109020
Ar   -145333.7463554958      3791.0277065695    -85764.4228796520
Ar     87840.5243624478      5511.4186661085     25121.6219483313
Ar   -618511.4881408915   1050053.8114041705    325378.1872612135
Ar  -4796265.6082586451   8361836.2054916508   1796424.0859533865
Ar   5414792.3271104973  -9411873.9989151265  -2121793.0092849024
Ar         3.7419137543         4.6484348202         6.8541675259
Ar         4.4642516765         4.2513714014         7.1653434864
Ar         4.4687787125         4.6045427220         6.3581809054
Ar         0.3100497743         2.8489491598         2.5064492878
Ar         0.9849450086         2.9317447336         3.0667378085
Ar         1.0176248280         3.3211724486         2.2770923274
Ar      1706.9535460186     -6870.5379701864     -1252.5620961959
Ar     -2708.8010334012      4523.5984304253       109.2332584471
Ar      1012.2423751617      2358.7600469369      1157.4945440278
Ar       -43.1383613862        61.9151284522        67.4583034560
Ar      -115.4579439056       -59.9713060943       -82.8854366593
Ar       171.9909737059         8.3829131822        40.3828216960
Ar         7.3326944351         6.9955059550         4.6405890392
Ar         8.0928406375         7.4305810661         4.5449370023
Ar         7.6359696121         7.1804764831         3.8343186246
Ar         4.0616337589         1.1867509505         3.5342525645
Ar         4.4725314738         0.6057491438         3.0147702459
Ar         4.8375166935         1.3923031703         3.1709126835
Ar         8.7795551414         0.0677933615         8.8802427239
Ar         9.1813890731         0.1683527803         8.1026315065
Ar        -0.0852158059         8.6665604224         8.5077678308
Ar        14.9506714062         1.3282819457         4.0142903806
Ar         5.5954539402         6.3238175329        -2.2458981986
Ar         0.2871080436         7.2315846322         5.6549231470
Ar         8.3146443279         5.8751467375         7.3068459640
Ar         8.9093470938         5.2345712757         7.1961499627
Ar         8.8591268718         5.8943814199         6.6144366195
Ar       397.2301743492    -10630.7513983874      5168.0887616633
Ar      -273.2271031872      9356.2994057761      -798.4689906984
Ar      -113.2775916299      1289.9237630515     -4354.8004233153
Ar         1.0158419104         1.3180314682         3.1306986349
Ar         1.6003254833         1.9122354477         2.8451071444
Ar         1.6436596781         1.6144038770         3.6731653681
Ar         3.6496296496         8.8798420019         2.8496759543
Ar         3.5981714873         8.5252688865         3.6545932651
Ar         3.1354072544         8.1783041480         2.9899680732
Ar   1441284.0958690615  12893182.6037454344  16067968.7741210330
Ar   -137990.2373131998  -2815739.1545656109  -3378257.4444039622
Ar  -1303277.3693303573 -10077426.2028468922 -12689697.9334510006
Ar         0.2671326874         1.3750578577         0.6896475545
Ar         8.7498994384         1.0555157906         0.8841326917
Ar         0.0867818388         0.5243811519         0.5479273345
Ar         3.9304543328         0.5158712824         9.2701714548
Ar         3.9650157061         0.6920775717         8.4076062335
Ar         4.1701877531         9.1676454235         8.7013732148
Ar         3.4090927574         5.3030205901         2.1798040671
Ar         4.0985079003         4.8077829930         2.4158303161
Ar         3.9611976219         4.9953333359         1.5659875853
Ar         6.8153600988         2.6954895146         7.5551348162
Ar         6.6771083180         3.3274485873         6.9569909443
Ar         7.4808695888         3.2130664332         7.2992575746
Ar 204160710.0316828787 ******************** ********************
Ar ******************** ******************** ********************
Ar -44101874.9047181681 ******************** ********************
Ar         2.8883493312        10.9174799473        19.1327114169
Ar         5.6775589931         6.3664379104        -6.7049146579
Ar         4.8986271450         3.0795253221         4.4452829078
Ar     -7266.8754894818     24261.6347704118   -142187.7803700104
Ar   -105581.8725408307   -144926.0661831396     13486.4780867528
Ar    112853.3294961363    120683.3356571061    128708.0880137865
Ar         7.0348786350         8.5928963464         2.5054478586
Ar         6.6499326620         8.9218565444         1.7844321162
Ar         6.3557625944         9.1487721828         2.5833283348
Ar         1.6647436975         7.9119809593         2.0876042151
Ar         9.5023635257         0.5220384262        13.7213239494
Ar         1.4644657871         7.6892188572         6.0381901976
Ar       152.7487589641        12.6831033463       191.3130997427
Ar      -243.8161346285        15.8840033045        11.3392272856
Ar       102.6740768415       -19.1914815507      -186.0859505344
Ar        -3.5236168972         3.2448498561         0.1090312524
Ar        10.1469888464         5.5230519804         2.7034958167
Ar         8.6564533308         3.8490075263         1.5093107461
Ar         7.4138417918       -10.5277495972        11.4008563651
Ar         3.4444156647         6.6733488502         3.4406647072
Ar        -3.5141876974        17.5016700641         4.0329780088
Ar    -41326.9862923871    312913.2268423383   1211853.7181976463
Ar   -937428.0874882672   -471172.1160374524  -2158175.4500005553
Ar    978766.5422371411    158274.3888546385    946339.8118724667
Ar         4.8598138694         8.6104669137         1.7345701719
Ar         4.1308043308         8.1342104038         1.6004554930
Ar         4.5966376510         8.4295873181         0.9134229495
Ar         2.5423272131         7.9024030981         3.5084424895
Ar         1.8940827381         8.2211110791         3.0039960180
Ar         2.6580153000         8.6556168159         3.0662352160
Ar         0.1831259245         1.6254077801         2.3428819010
Ar         0.2400669663         0.9669138279         1.7602968461
Ar         0.9729837325         1.3379767211         2.0787418999
Ar       -56.0240537833        -9.5132800784        56.6769451850
Ar        58.2614181817       -12.7568159309        31.9807466735
Ar         7.3206151046        29.3844894570       -66.5567982150
Ar         0.6978857379       -31.7115333873         2.8032083838
Ar         9.7941570545        35.8905053713        -0.2664237659
Ar         2.0720212309        15.9450361274         2.2834120060
Ar        11.2806341352         0.5788808709         4.4029952027
Ar        -8.6065556724         9.8201775974         1.5693867523
Ar         6.6685198011         0.1793389268         4.8867066683
Ar    -47968.4380473476    -32589.5107083825     92357.9137410299
Ar     99952.2195064575     14002.9691020098     69908.9458407121
Ar    -51978.6147149644     18606.7805070868   -162258.0890313683
Ar         0.3950731834         4.5461144544         5.3448349337
Ar         8.9411946450         4.7765333422         4.9159976427
Ar         0.4465207536         5.0399460786         4.6169988390
Ar       -59.9245913318       -15.1836756535       -16.5917000545
Ar        69.4040709910        43.8273649432       -11.1879680675
Ar         4.4485536320        -7.7059812429        40.4158835137
Ar         6.9245884874        -0.8828601234        -1.6229708669
Ar         4.5151278468         9.0044887897         0.2019643824
Ar         3.8747969825        10.4585066759         8.9940089193
Ar        46.4513250355       -42.5245108703        78.6833670564
Ar        -0.5395649151         4.7279719197       -55.3985391128
Ar       -27.4132207362        47.2104582046        -7.3821958968
Ar        41.4866129074        24.9540965963       114.8710814632
Ar       -49.5315973074       -11.2574407942       -21.7461651775
Ar        22.5982076685         0.0863014674       -76.1912080616
Ar         0.3144176409         5.5586682532       -12.0783628905
Ar        11.9559869903        -2.8442432630        -4.4526925952
Ar         4.0006013802         0.1331202149        26.9716034910
Ar         3.8773762698         6.8208679341         2.9556668755
Ar         4.6203447488         7.0701111931         2.5530037988
Ar         3.9059719044         7.5845563310         2.5172330344
Ar       -44.2682547921         0.3860876233         2.1994974333
Ar        45.6460715545         6.6779790552         8.1261096377
Ar        16.2404428518         8.2749724303         8.3551488583
Ar        -2.3451727459        10.6799348998       -20.9701555192
Ar       -10.2088814107        -6.3015480493        12.0360470088
Ar        29.7647243126         7.6616472458        27.5570019390
Ar ******************** ******************** ********************
Ar ******************** ******************** ********************
Ar ******************** ******************** ********************
Ar         8.4289196935         8.1367756462         6.0756106731
Ar         9.0303876554         7.5440631163         6.3269870015
Ar         8.7376051337         8.1451466429         6.9007804331
Ar       -70.3213984233        48.6948737940       -13.3997567014
Ar       647.4037286742       233.8411063110      -458.0740589173
Ar      -565.0761883447      -266.3829435774       480.8378521178
Ar         3.0182817248         6.8466865358         5.2344876128
Ar         3.1096545354         7.3782775408         4.5378356741
Ar         2.3052417560         7.1735827967         4.8332710324
Ar    -12583.4824421924    -66108.6664877802    -61120.8028272526
Ar     26856.0939081431     98151.3833811362     10311.9592997388
Ar    -14262.2286152982    -32031.6730186179     50823.6154810965
Ar       181.6572985869       -13.9062246435       120.4434419092
Ar      -143.7035388420        48.7123676289        14.7081625303
Ar       -24.8816963922       -29.5400511813      -131.1437519285
Ar         5.2533154266         5.6842478571        -1.0890519275
Ar        15.8209870223        -8.2192198903         8.5254260881
Ar        -3.8588504522        13.0754593176        -0.8736460839
Ar    163892.1565471758    266952.6201475296   -580726.2422300655
Ar    429249.0003424359    -46885.1503724670    -53328.7744825091
Ar   -593124.7917846710   -220053.5748877570    634066.8083664789
Ar         0.6269974140        -1.6842899931         6.5505194229
Ar        -3.4125471684        17.9099188083         5.3942467686
Ar        13.0725330676        -0.4473925269         5.7099888642
Ar    -76564.0393716568    310293.7495847699    -49523.4475156587
Ar    -79254.1077225724     87322.1291000585     53459.5424391624
Ar    155834.6626666437   -397606.9018265104     -3914.8197741928
Ar        -3.4355581508         8.7252513788         2.9873454265
Ar        12.3270714999        -2.6081177979         1.2652235333
Ar        10.2378503009         3.6823727874        13.1859995043
Ar         5.0657013972         2.6360225625         1.1864276075
Ar         5.2024665756         3.3351821314         0.6680328796
Ar         5.1318638136         3.4403322111         1.5399391923
Ar      -753.1985968010      1389.4123671254     -3333.5287749288
Ar      1588.4370890088     -1009.7920800423      3157.5927096005
Ar      -821.9160077127      -368.0962608826       181.7777936226
Ar        11.1599700988        13.9058111173         2.3014175185
Ar         4.0911161053        -3.5303013397         9.7665935594
Ar         8.2847817505         6.2109110267         1.1179863011
Ar -15391893.8139188029  41626620.0027538314   7324780.1183608137
Ar  -3420644.6370058665  -2016663.6799676474  -3908383.4722779207
Ar  17886569.9220355116 -40393644.1855621189   1187803.5043809600
Ar         0.6412147974         3.8319207955         4.0624517262
Ar         0.7208270476         4.2266139165         3.2787801491
Ar         1.2172214266         3.5245045854         3.4708661060
Ar         2.9330033658         5.0898916352         5.3384176879
Ar         3.6545358515         4.8801882010         5.7985016551
Ar         3.3015903552         4.2954802687         5.2418976475
Ar         1.7182747112         6.6472952637         4.6863161861
Ar         1.4051185168         6.1251673028         4.0494665143
Ar         2.2351374593         6.4181175838         4.0105999724
Ar         6.0330186330         2.8929897707         1.0308800881
Ar         6.0421125838         2.3132415989         1.6942587623
Ar         6.0894304541         3.1766724173         1.8631082860
Ar       250.4299023947     -3808.7462056126    -15523.0043978495
Ar     11421.5041532450     -4081.2933861236    -11263.7215902688
Ar    -11663.3409305316      7900.8802660858     26796.7637651838
Ar         4.1356053500         7.5588349387         4.0728574527
Ar         4.5909483311         6.9197901210         3.6721750287
Ar         4.5342924013         6.9355893911         4.5512668310
Ar         6.3727831970         8.0215075739         3.4392951902
Ar       -31.4093655971      -217.7800440903       -15.5431733311
Ar        42.2502856834       226.9523074046        24.7582486568
Ar         2.9340611783         7.5691300693         7.3645056008
Ar         3.1202322032         6.8967328686         7.9025430202
Ar         2.3643344059         6.9025163900         7.4499427692
Ar    156021.2593794369    111942.9410424445     20107.9063820717
Ar    -82424.6767910401   -129864.3970314079    -28771.6425014100
Ar    -73587.3046926821     17925.8555574378      8689.5755396677
Ar         5.8891896378         3.8355461459         7.0714397882
Ar         5.0179451807        -2.5759964285        -5.6823842337
Ar        10.6053044365        12.2162437285        18.8721074773
Ar    627250.7995584286   2004563.8813110562  -1415754.0971286462
Ar   -288750.1459213922   -712715.8298234642    577410.4118305581
Ar   -313016.3263162707  -1271998.5374376592    861256.0694153256
Ar         7.1723204435        -3.4880224679       -12.2944461291
Ar         8.4724151910        -4.3859835535        19.7717200220
Ar        -3.7242576495         9.4726520404         8.1986295079
Ar         8.4159041611         3.3749759323         3.6073307277
Ar         8.5793040576         3.5987179318         2.7709684249
Ar         9.2410261417         3.3547906477         3.2990643199
Ar         0.3291129121         8.3241384732         1.0845597980
Ar         0.5682536520         7.4965284764         1.2693172482
Ar         0.2338391503         8.0101726907         1.9022457453
Ar        13.7816867517         8.8001093697        15.3492649654
Ar         3.9827376736        -0.6341451390         5.3732438174
Ar         4.8585476383        -0.6789404584         5.2883191696
Ar         7.8305763875         2.4097486758         6.7214500504
Ar         7.3802316532         2.9279197874         6.1692270641
Ar         7.6582444797         2.1357281064         5.9020134422
Ar      -932.7551799325     -1593.7897469898       835.4587757272
Ar      1111.7400038257      1878.3439845393      -980.1196310506
Ar      -174.1636439213      -260.3620080199       156.6134040510
Ar     59479.4637093559     -8664.7840756409     59397.3163019154
Ar    -15009.4475206840     -4714.5229936547    -18679.1201617171
Ar    -44454.4987869790     13389.8902530885    -40709.6665954526
Ar      1729.2747276696      -229.6248738254      4197.0501325087
Ar     -6578.7764031033      4213.6724199960    -13470.1159589902
Ar      4871.2465859101     -3965.0457154861      9295.6066828350
Ar         8.9513665037         9.0722094603         3.0894250576
Ar        23.1589035888      -217.9610849275        79.1836842480
Ar       -10.5150631125       225.1109707912       -67.9628526069
Ar         2.0277670494         3.1595793181         5.6497920809
Ar         1.5897153296         3.7827517440         6.0925434027
Ar         1.1489318370         3.1268046004         5.7030499275
Ar         4.7996135735         2.6317275372         3.2781689168
Ar         7.7384191309        12.9091288099        12.6305982333
Ar         5.0567698778         2.4865059139         3.3680683318
Ar         6.4094287419         5.8742227632         8.7591885742
Ar        -3.1396914151         5.8679197571         9.5982649838
Ar         7.0015238492         5.8488471896         0.1306706499
Ar         6.2059700731         7.5450549515         7.0065508851
Ar         5.8526202410         7.1356885962         7.7021261823
Ar         5.9687744250         8.0089280411         7.7170590755
Ar         6.7418040608         1.2995591668         6.5552870994
Ar         6.9066144600         1.6349856731         7.3531520641
Ar         6.9782978368         0.7675372777         7.2165626177
Ar        20.0499472977         6.6041530465       166.0604731163
Ar       -62.8483446206       105.8001997146      -141.7865281862
Ar        51.1913830525       -97.6628178402        -6.8091052867
Ar 683186261.0444326401 763408875.9170722961 131520436.6240028441
Ar ******************** ******************** 150320727.4425453544
Ar ******************** ******************** ********************
Ar         0.5636875030         8.8545101733         3.8874180275
Ar         9.2234732426         9.0358922618         3.2889920788
Ar         0.4121692106         8.2928279767         3.2257404383
Ar         4.1190310602         3.8248023258         5.5703870669
Ar         4.9595429600         3.6087689457         5.4182974703
Ar         4.3939154737         2.9994333412         5.7099094998
Ar         6.4680745063         4.0562090419         4.2820094946
Ar         6.0170837624         4.4644722319         4.9193401995
Ar         6.3399009225         4.9269971400         4.2424933188
Ar         3.9872029562         6.5875386662         5.5841171919
Ar         3.7863966677         5.8934720373         5.0799245057
Ar         3.2649664681         6.1128739003         5.7553764139
Ar        29.1015564879       -14.4896603265        13.8489232204
Ar        36.4551394661       -11.3839750338        14.9654134211
Ar       -49.3535211948        42.9051183160       -10.0815717796
Ar         1.4262083443         8.1624108475         8.4108976641
Ar         2.2104237492         7.8816573645         8.1237642725
Ar         2.0956222961         8.7298748093         8.3325936166
Ar         8.6992016018         2.9492563357         1.2221145004
Ar         8.6043545560         2.8162985372         2.0879021046
Ar         9.0918471258         2.2612436950         1.6077697993
Ar         7.8102354434         0.6838003455         3.2305697867
Ar         7.6642367576         1.0444715093         4.0210523015
Ar         7.2400681004         1.3505315204         3.3120599677
Ar         7.2164030026         0.8279927102         8.6873493390
Ar         6.4860734322         1.2943774215         8.8466161918
Ar         6.5117723712         0.4356596579         9.0420779079
         600

Ar         3.2337801271         9.4778507981         6.1133985185
Ar         6.6953189601        -1.5648602761        -0.2093442054
Ar         1.6561231716         6.0020519141         7.5230978483
Ar        98.2148090540      -224.4512798626        33.9258569536
Ar      -136.1880235788       152.4168148189      -104.3035244976
Ar        59.4472758262        89.0228918636        81.4645275720
Ar ******************** ******************** ********************
Ar ******************** ******************** ********************
Ar ******************** ******************** ********************
Ar       -10.0499111596        25.6976982944        18.2490364567
Ar         8.0368710057        -1.4708246388         5.4088118659
Ar        17.9118791861       -15.7055012134        -6.5719503622
Ar         8.0486962359         9.0104403864         9.2998519084
Ar         0.2993133559         4.5761606372         5.0503100990
Ar         0.7971739364         7.1139465753         2.4824861777
Ar ******************** ******************** 456266882.4649094343
Ar 110524444.7704357207 ********************   4467368.8609820232
Ar  29723861.6983522773 362207890.4941180944 ********************
Ar         2.3655727993         7.7584747006         5.0865539937
Ar        -0.5579169793        -2.1650045262         1.1471883136
Ar         0.2686442405        11.2382481299         4.0892903192
Ar        11.9457742426        27.7392853108       -21.4798337971
Ar       -21.9831525023       -29.0329407161        12.3847673535
Ar        19.1363842552        24.6991716245        14.0427790398
Ar        -0.6130148075        11.6100602309         0.6940834109
Ar         9.0153837473         3.1061551162        10.2029273592
Ar        -0.3200024603         2.4566334577         1.5152202568
Ar  49689073.5308805108 -30591667.3442909122 -58624213.5892841890
Ar -39233453.3430648744  -1674373.7447986603  -4512654.0254781879
Ar -10455602.4161713086  32266055.2548122630  63136892.2716235667
Ar     -2630.2153970252     -2498.4334957938      -924.5697307454
Ar        48.3647440031      -990.5303999348      -747.4964410442
Ar      2588.1902910548      3498.8364530236      1690.9951761460
Ar     -6854.8830749808    -12551.2880310589     -6025.4777186545
Ar      6453.7954660186     -6555.1078393620     25309.7516937243
Ar       408.6423024574     19119.1959333787    -19274.4533410054
Ar        -8.7135507790        13.0936692150        14.5875465096
Ar         7.8434616326         1.0243812504         1.0393228300
Ar        15.4293208415         2.2866507530        -5.1766361978
Ar         5.4515982633         2.5428681105         0.2985764010
Ar         5.5246756981        10.1808232466        11.3389206369
Ar         4.7255249237         2.5222258975         0.7968446251
Ar ******************** ******************** ********************
Ar ******************** ******************** ********************
Ar ******************** ******************** ********************
Ar     53731.6126834239    -22237.3389801644    -22213.6941569838
Ar     -7288.2104501181     38791.0470409476     54646.6507065530
Ar    -46432.8796918610    -16541.8612960713    -32415.6804026572
Ar 414415224.7752362490 ******************** ********************
Ar ******************** -10169109.5874180645 136536292.2251532376
Ar ******************** 178173340.1040385067 165557588.8511997759
Ar       -14.2541233374        -1.1245156713        -0.5298589327
Ar        16.4642691338        -1.5435284870        -6.6612323449
Ar        16.4462676367        16.3510353076        18.2133078082
Ar ******************** ******************** ********************
Ar ******************** ******************** ********************
Ar ******************** ******************** ********************
Ar      -169.2791759860      3839.7587890769       200.4180667580
Ar       -56.4770248467     -2771.4309549910        33.9883950482
Ar       239.3115540183     -1061.4540513017      -222.2639142994
Ar   -736293.7311753407   3006601.3838265706   2786360.3944815891
Ar  -2308743.0400753976    855925.3070637712  -4274900.9866242679
Ar   3045047.5947750960  -3862511.9325821581   1488552.9760226645
Ar     -4513.4853613539     -3443.1093167270     -4187.5719097340
Ar      8310.9355415926      2212.8180890057      3060.7922630676
Ar     -3779.2019163884      1235.8155141375      1146.0892431317
Ar         1.1280818386         8.1088944298         5.2173053005
Ar         1.6908704958         8.1619021311         4.5414939193
Ar        10.2960760422        -0.5554278929         4.5976495104
Ar ******************** ******************** ********************
Ar ******************** ******************** ********************
Ar ******************** ******************** ********************
Ar ******************** ******************** ********************
Ar ******************** ******************** ********************
Ar ******************** ******************** ********************
Ar     -9303.0372466297       790.7671108218      2717.2807256550
Ar      2533.9378375024     -1433.4906959848     -1330.7523523780
Ar      6783.6275320777       654.7351686154     -1373.7525932193
Ar        -9.2158211369         9.2098824960         0.5556037979
Ar        19.1362159785         2.8217690612        -0.6681339160
Ar        10.9899472075         2.7481199375        12.0612412217
Ar         7.9773837945         4.4464841635         5.1458388325
Ar         6.7349205768         7.6023145327        15.9761111995
Ar        -2.8957755940         6.2331210449        -1.7779670381
Ar     21026.8410631952      6953.0276059471     14514.0217731665
Ar     -4010.8158753051     -1032.3601732305     -7721.8975144472
Ar    -17003.8262504401     -5896.2477576532     -6781.3787787230
Ar        -0.5406933416         0.3104324639         8.7014071155
Ar        -1.2400643787         1.2426699656         8.8442261362
Ar         9.5359078299         5.2146514947        -7.7685456768
Ar         5.0773963849         7.1653106610         9.2959044224
Ar         9.3040724674         5.8901944353         7.8769437807
Ar        -3.3831453155        -0.8993913307        -1.6200616064
Ar ******************** ******************** ********************
Ar ******************** ******************** ********************
Ar ******************** ******************** ********************
Ar         3.0420603066        10.1458859545         2.4508821242
Ar         6.8110753528        -2.8180129538         5.2573439949
Ar         9.2261318446        10.8815221297         2.2548131049
Ar         4.9035813127        -7.7387427646         3.2682856693
Ar         2.7623274060        11.8919457712        14.1777271057
Ar         2.1132697744         8.8625792909         5.1902976568
Ar      1222.1758840747      -284.8707952287      1396.3758692655
Ar     -1153.5076071599        76.8313577457     -1243.1490508241
Ar       -47.2347356944       216.1415948785      -138.9183542866
Ar         0.1840967166         9.5112015881         2.9285718222
Ar         5.9450117987        -0.1773361496         1.9168191011
Ar         0.8488935954         0.1412313608        -0.1610114753
Ar        12.2491349612        -1.5114425132         8.1832974338
Ar         7.1603591199         5.2840092677         3.8628855845
Ar         6.7194375645        10.8538998036        -5.6358353998
Ar         4.3663503401         6.0427072837         3.7414221036
Ar         6.1719642986        -4.8640208921         1.9384713783
Ar        -0.1485311356        16.0671800614         4.5242479421
Ar   8322980.5902665779   1478251.6091002943 -34199164.9480803907
Ar -30050165.7552629411   -452303.0433549205   5950444.0595890544
Ar  21727189.2272876874  -1025932.3062033501  28248764.3232734874
Ar  -8500349.1295985542 -55926586.2952866554  35449443.5976888463
Ar ******************** ******************** -93579399.3001316786
Ar 143526387.2850122452 157174176.0641574562  58129963.1313066557
Ar         6.4048668532         1.2189808576         4.8080283672
Ar        10.6762474788         8.1590522270         1.3326295127
Ar        -1.3021001589        10.5751363959         6.9062477719
Ar     50342.4327187046     45382.7986025803     14865.8559124330
Ar    -31792.2839261432    -24616.6592837986    -40746.4935127047
Ar    -18542.1996660523    -20744.6732641002     25882.7011471322
Ar    364754.1930032699  -2247989.3649629392   -656498.7844151822
Ar  96163244.1428923756 ******************** 592091814.0169113874
Ar -96527983.0227467120 125513659.3955782354 ********************
Ar        13.0840300603         7.8768307792         4.6197484606
Ar         0.3407918600         4.0075688074        -1.9912758325
Ar         1.6768787055         2.6597160458         4.9594031048
Ar    -34367.2988808323    -30332.3981510309      6781.1837833417
Ar      1863.3321746959     17228.0355978846       559.7040787387
Ar     32515.1905068297     13113.8278299621     -7319.0075584112
Ar      8294.7887966393       848.1039146829     -3666.1284973216
Ar     36139.8643955126     -7510.3937233616    -10304.8274741313
Ar    -44424.1301503268      6677.0436982454     13980.6716778344
Ar         6.5903350339         5.0772920829         2.9531480262
Ar        78.1051343363       -62.9961202134       -55.1701276855
Ar       -68.8336488201        65.2815265801        62.1154754921
Ar       -14.3535424094         7.0047473390       -46.2693417636
Ar       389.3675630681      -158.8990203891      1021.3889719232
Ar      -357.2369415766       162.0790299192      -964.8865213737
Ar -14436869.3187433891  35324980.5415501818 -19226909.3789466657
Ar  40263087.7876124531 -41737089.2108207494 -15214301.2300899737
Ar -25826211.6407739036   6412120.4945113137  34441224.9076893926
Ar        88.4514640868       -43.4742618487        41.9845087001
Ar      -104.3965135521        67.2090330839         0.8684856153
Ar        32.6482502119        -9.4216799570       -28.7129059282
Ar   -118942.3754713831   1178900.3353665771    730372.5691133875
Ar    135395.1629673873   -651026.3410845033   -773036.8077411458
Ar    -16439.2120319557   -527862.8780924513     42681.8982491369
Ar      8552.8615405514     -9502.8415451836     -9320.9624936458
Ar      8612.6879743849     22774.5409018307     22612.5400369063
Ar    -17153.4613179109    -13267.1368591462    -13282.0630208105
Ar ******************** ******************** ********************
Ar ******************** ******************** ********************
Ar ******************** ******************** ********************
Ar        -0.9173602062         3.5302284210         1.8585571309
Ar        10.0759290549         9.2548199978        13.1924805886
Ar         8.8719850637         4.1272344281         3.6472543983
Ar        -1.5705725864         9.1841521203         0.7280160567
Ar         4.0179219878         5.1565448771         0.8507226221
Ar        11.3703882989         3.3418349247         9.7411403966
Ar   -183423.6978557587    -67906.9817096714    347629.1314509420
Ar    887793.6987044469    457132.2483963463    459338.7304973470
Ar   -704360.1794930787   -389217.6823906276   -806954.9228722354
Ar         4.9515932095         4.3067610814         8.1069882666
Ar         5.0105355361         3.4485908319         7.9163799105
Ar         4.8685340740         3.7066853130        -0.5337378118
Ar    118223.8476046214    992087.0873120155   -117767.7266449305
Ar    371597.3395966311   -848732.6288096164    159505.8127475441
Ar   -489817.5053418934   -143342.6225635444    -41727.4958113193
Ar      3265.1997045824      6728.6484087083     -9626.4574230707
Ar      -955.0674319218     -2343.8119579007       988.4211879957
Ar     -2299.7041264824     -4366.5825781614      8650.0179277910
Ar         1.4304926540        11.0788771633         9.2155368765
Ar         2.6155836128        10.2246093066        -0.1683104972
Ar        10.0828571163        -2.4755145464         4.5221839358
Ar 219593189.0961180925 454156466.8807697892 ********************
Ar 101141001.5311852396 ******************** 186733992.4999536276
Ar ******************** ******************** 398433409.6536738873
Ar        -9.5529561892         4.1596822832        14.2631695840
Ar        11.2526399960        -1.4850731738        -6.2953699207
Ar         6.0522109725        15.7591792223         3.8396320082
Ar      -791.6828419603     -1402.4697203279       868.8560058686
Ar     -1174.1048790463     -1372.3001519637      1233.9207171212
Ar      1977.8149427509      2782.5465052474     -2090.0271778644
Ar         8.9678382258         2.7131034119         8.1578847638
Ar        -1.1823773740        -2.1131524567         3.6424247560
Ar         8.5176189732         4.6753365086        10.2556130948
Ar         8.1941498957         5.4325293524        14.3242683645
Ar         3.1838927297         1.9103263399       -14.2847491051
Ar         7.8395345344         0.7097223316         8.8665160371
Ar         8.1857536618        23.7085487323         9.9240165781
Ar         2.8112379786       -10.3709551510       -18.1082160718
Ar         3.3411491846        -1.3702084903        24.4342482018
Ar    -28080.6942781368     -2285.8129354463    -34840.8639057680
Ar      4606.8254879785     12395.0835246629      9091.9830610840
Ar     23489.9921164508    -10098.4556927267     25758.5298584137
Ar         4.7922488758         2.2942437754         1.5863948002
Ar         4.7521328728         1.6820811354         2.2187788021
Ar         4.1794133070         2.3515960917         2.2167956101
Ar   9061971.3125312999  22380314.3300207555   9779286.5803439207
Ar -13900929.2306341827 -13994226.4393661339 -15445559.7556974757
Ar   4838976.7640421577  -8386559.3421581583   5665597.7864095028
Ar     89578.8118136399    -39661.3392181356     34773.2095236805
Ar    -43080.1122355645     -6351.2874971856     -6641.1919322743
Ar    -46481.3764869215     46032.2503980892    -28115.3918614577
Ar       120.4109820681         1.1218550668       131.4468437655
Ar       -18.5866433451        28.9759431581       -15.7721189774
Ar       -90.3188156301       -13.9165646121       -99.9476910248
Ar       216.7550369880       505.5706031469       468.1492126215
Ar      -211.3198074788      -821.2297739546      -487.3373725732
Ar        11.2960222933       326.8996179776        32.5825599761
Ar        12.7462469588        16.7593804085        20.2479690181
Ar         5.5294041659        -4.6989600119        -6.5795536168
Ar        -7.0198885745         2.1037544667        -3.6022161177
Ar -16891483.9162310511  22629742.8953555971  13439366.1115749665
Ar  24372686.1666131653 -14055306.3574239649   3534290.9363703616
Ar  -7481176.9195863483  -8574423.7073085997 -16973640.7470889241
Ar   -170389.8400165281    101967.9271868902     -4028.6688012668
Ar    724621.8013787656    313855.4606833264     57220.3342168478
Ar   -554215.2582957512   -415813.0279442883    -53178.6977300418
Ar ******************** ******************** ********************
Ar ******************** ******************** ********************
Ar ******************** ******************** 903515125.8124861717
Ar        -3.4901675971         7.6539592920         8.3438565273
Ar        -0.0161314327         3.7761135672        -2.9897255926
Ar        10.7928659471         0.6953383986         9.5029796472
Ar      6824.7773159310     40226.9982302716     -9203.7582124594
Ar     -4200.7157801582    -33027.3113527473    -14152.6530024501
Ar     -2608.0202247090     -7186.0489372003     23371.2733457605
Ar       -32.3435938397        51.7806387620         2.0862334707
Ar        46.6654401967         2.3824167546         1.8552202595
Ar         5.4138546818       -34.2126002381         2.9662842020
Ar         5.1104798630         5.7467915168         6.5444900011
Ar         5.5792661262         2.0166551623        -6.9949557722
Ar         4.2351341915         6.7525913370        15.4679997284
Ar       781.1067238048     -3927.7178864331     -1462.3223749552
Ar      -180.4964669956      1044.3806906919       529.0178048428
Ar      -592.0912911284      2898.9520713756       952.6618599883
Ar      -728.3091580950     -1148.0351750019     -1046.9477416463
Ar     -1502.9935322766      -448.8054487989      -837.8263772765
Ar      2242.5290938417      1609.4993438752      1892.9094027105
Ar      1547.3349912028     -1558.6301178629       367.0225329628
Ar     -1671.1508992378      4785.8104898054      1943.8186117315
Ar       142.4437622636     -3205.8884480950     -2295.4191953725
Ar        15.0143791804        12.4763629162        13.4891020596
Ar         2.1818755612        -2.3827189317         0.3343540605
Ar        -7.7347646163         5.4539442158         9.6018948341
Ar  -8183037.6645271145  -3670474.9121824345   6079456.7532765968
Ar   5765598.4728544764   3416747.2250652788  -2937050.8488572631
Ar   2417459.8845272101    253737.0669145545  -3142389.8279943066
Ar        35.1870115178         6.6270179674        30.7098961951
Ar       -11.3415500844        14.1721890066       -16.8095271598
Ar       -14.5714682101        -3.8419401157         4.3355261815
Ar         6.2949450465         5.8881177925         5.3140984429
Ar         6.2118894980         5.0315138422         5.1254364014
Ar         6.1671011240         5.3047437923        15.2423280317
Ar       357.7226697274       976.8218336106       638.0990349436
Ar     -1456.3467683943       478.4419899772      -427.9485405298
Ar      1107.4412411457     -1445.4921674270      -199.8510786193
Ar       788.6369078009       561.0869503248        36.4848232285
Ar      -692.2456870737      -475.0382103220       -43.2914088986
Ar       -93.6209925272       -64.9315076948        18.3735660630
Ar  -2230711.6690033064    -86937.6105867134    820225.3218554147
Ar    515835.2048497620     53125.0209115952   -353610.1184337997
Ar   1714892.2202229612     33833.4928662849   -466603.0832012313
Ar       -13.9522799314        25.7288082077         6.7990497626
Ar        17.1596882262        -8.3476718942        -3.4835397003
Ar         4.9478101429        -6.4895815761         8.9386841712
Ar       297.6304119384      1817.4985787791      -219.0528168805
Ar       -86.0536361067      -771.9933003057        49.8778695061
Ar      -193.8614249322     -1035.7722782904       181.9576863185
Ar -16069085.5685817953 -11477603.6771748718    553269.8987227846
Ar  11577361.5259425584   3041584.4316926589  -7201217.8636650834
Ar   4491733.6972985538   8436023.8878464326   6647956.6234740224
Ar         3.0990039703        19.3153934406         7.1886073169
Ar        25.7732606312       -28.4369866939        18.4126896721
Ar       -10.3417947931        20.4973614687        -6.1325389298
Ar        -7.6397225003         5.4706025991         6.1619366130
Ar        15.5885411995        10.5320244315        -5.5908665500
Ar         0.8946714129        -1.2867450200        14.3688603208
Ar        12.2624900304       -13.3370438416        -3.3538447741
Ar       -47.8305251757        59.7857058939       -43.4140040570
Ar        41.1983403239       -34.1304500411        59.4780554676
Ar    -22617.0487089591    -32112.1111215068    -10081.3125075896
Ar      9663.1817919442     86337.2474075866     -2254.3177243439
Ar     12956.6359636569    -54210.0882611818     12353.0884459387
Ar        32.8291070333        24.4309332931        23.2250217943
Ar       -21.6850304063       -16.3815548996       -16.9724820567
Ar         0.6742482515         3.8624304306         1.2403114043
Ar        -0.1920685265        -7.9626757781        -5.9634477962
Ar         6.7547639599        14.8535007585        17.1495168242
Ar         4.0223599929         7.4657325202         6.7829874867
Ar        72.9562121927       154.1005641115       178.8127444166
Ar       -62.9642163576       -53.2320357075       -73.7673846696
Ar        -1.8246886703       -95.1520443457       -94.4102320020
Ar         5.2324927010         2.7192463537         5.4537062730
Ar         5.7345594340         3.3095477033        -3.4075557775
Ar         5.0431811906        12.8583402682         5.3972451378
Ar     10010.4159147439     -1410.4335194185     -6370.0933803534
Ar     -1037.7140241719       919.9626244588      2090.0188218955
Ar     -8953.8736834131       505.8691284386      4290.0757807162
Ar        10.6098231098         5.5479830086         0.1369643088
Ar         5.5252279048         5.9732400102        16.3451939553
Ar         1.8982822618         3.9688080633         3.1999689420
Ar    -11820.6789836728     12928.7555584354         9.8286155462
Ar     27561.4658199358    -28826.7514197243     12669.9263433561
Ar    -15727.0146655725     15917.2887512659    -12658.4405991867
Ar         0.0424015832        12.3316792961         6.6547089671
Ar        11.1481516868         6.8491584407         1.9945592771
Ar        10.0782374554        -0.5722931200         2.4282162979
Ar  -1993512.2842859249   2496315.8444784824  -1606202.3851438446
Ar   1238295.2830115096   -446736.9515432075   1992216.0032704105
Ar    755235.8647415653  -2049563.2398431262   -385999.5676013459
Ar         7.7171042188        -5.1033305658        10.8221448971
Ar         7.2012868894         4.5126023015         5.4412078804
Ar        -1.1920420994         4.5107138544         5.1475672404
Ar         2.6725804054        -4.1540687607         3.7487879212
Ar       -23.6094611657       -26.1979320513        -3.4481097608
Ar        34.7061962886        34.5971561849        13.2064611629
Ar         5.5676660661         0.0855262334        10.3376822459
Ar         8.8713391586        14.7123442630        -4.7647334483
Ar         3.2653269873         0.0706594929         4.4808023926
Ar    -33936.4288281636     -1602.5265433966     -2107.8990341013
Ar     29919.0897685370      3873.6203559095      6835.8048568170
Ar      4034.4354593448     -2251.0481018339     -4705.0175261458
Ar      -249.4139008129     -2852.6938266932      -548.0531682836
Ar      5871.6413061427     -5777.6979085211      4970.3363653455
Ar     -5609.8568251017      8641.3804677317     -4404.1303708301
Ar      -724.7792993080        41.7999424749      -497.8697309066
Ar       230.8069049997       -10.0193086882       480.3032970263
Ar       499.3985875407       -17.6256956250        29.1945507328
Ar   1929813.2763668261  28584226.7855807245   8962458.8046212606
Ar   9456727.8788961712   2638212.1474812021  -7123322.7170767523
Ar -11386525.4956354629 -31222427.3309506401  -1839113.6090367660
Ar        17.5456807477        19.7955648427        -0.3157081855
Ar        -2.6547135169         4.5626895422        11.6810719848
Ar        -5.9100364811        -5.3449872659         3.5821225921
Ar         8.4121840080         0.9319327113        -0.8192478171
Ar        -0.0749525728        14.9957258532         8.1885615424
Ar         1.5041139398         3.1998148953         0.9060368440
Ar        40.7660567077       -98.3863461656         8.3225144210
Ar        64.2280562572       -35.1492031677      -178.6230949645
Ar       -88.3082809452       146.7609918961       175.0522261276
Ar       -32.7033328338       -24.9517733942       -47.1100349979
Ar        34.0087012917        27.1314992796        54.4825772249
Ar        12.8230533350        11.2236438881         4.6417882544
Ar         8.8758570720         5.9076848731        13.5624293325
Ar        -2.4971538405         2.9839304929         1.4037259594
Ar         7.1090237069         4.3597048170         2.4789779159
Ar        27.1018941904        32.0955237969        40.9633503758
Ar       -15.2327175624       -36.3537410665        -4.0694913545
Ar         5.0559240401        13.3518065056       -23.5958764091
Ar        -4.3095306383         4.0504383902        10.3194702552
Ar         5.0168495446         3.1894125039         1.2200765546
Ar         5.7020045249         3.5980882817         0.8461665756
Ar   6171509.1889075059  28183127.0812114775 -31534866.8225659803
Ar  13398526.0288021490 -25002529.5566628054  28633077.7410386428
Ar -19570028.5765524991  -3180575.4294431116   2901802.2823519539
Ar   1524250.2820762806  -1767262.9214548748   -245994.6306183229
Ar  -1097980.1233167886   1954553.1906158780    812350.0315413486
Ar   -426256.3615768652   -187270.9173925027   -566339.3106464416
Ar  22627778.1607687734 -82792717.2326821834  87801993.3531599939
Ar  11848446.6165151726 -47161140.9327402264  42297415.7368094325
Ar -34476212.6775647923 129953879.3897722661 ********************
Ar        35.0744687430         5.0099756589        13.9957008709
Ar        -0.1612418870         4.9717313355         6.4857614145
Ar       -15.8478614032         7.3195733705        -3.3084810689
Ar         2.3211533597         6.2802963083        -1.3860276083
Ar         3.5098628291         5.4132014436         7.7427301295
Ar        12.9560738911        -1.8008321677         0.1128533997
Ar     -9956.4606393718     17596.2972218593     -4324.3145154216
Ar      9981.6389345456     -8770.7530454094     -2591.0097351488
Ar       -11.3429913679     -8807.7478890644      6929.3068261952
Ar        12.3178038041         1.8906875275        12.0067290340
Ar         1.3167529760         9.4813607754         0.9415709568
Ar         1.6073754132        10.8873451135         0.5692881412
Ar  -1598585.5488927588   4910755.4117970942   5712028.7497788966
Ar    598767.5916813010  -3023275.1054758797  -1719217.5869952678
Ar   1023621.9606122772  -1832637.7508101333  -3993207.8471267084
Ar     -2414.8887827361   -114400.9474877608    -17081.8030716022
Ar     28504.0204120812     92120.7371935417     40742.2198541464
Ar    -26080.6561694044     22302.4264406164    -23639.1153725682
Ar   2186983.7072554352   -523578.9432363060    299774.5356607640
Ar   -517855.9423979013    435969.9055842360   -806624.8508766769
Ar  -1669115.4232516794     87620.8189436204    506865.7458088710
Ar         9.0130870471         6.7610072491         2.5053256781
Ar       -17.8540217497         5.8501329200        -1.9825868177
Ar        25.4993047105         3.6267814449        12.4739397330
Ar    354812.4761892764    281734.3583106663      -776.5707467559
Ar   -196500.3478343970   -277781.0755514695     23622.4999167348
Ar   -158297.2257007251     -3935.2192900176    -22829.6815149413
Ar       -79.3102347251         3.1332344917        42.9541532944
Ar       235.0310960288         4.2670887980         1.7627454514
Ar      -140.7148069725         4.8601440703       -27.7734390964
Ar        10.1651854868         3.1048860235         3.0923755917
Ar        -1.5193303143         5.7685198765         7.5286902603
Ar        -0.2818650511         4.4615464642         7.8463308420
Ar       122.0145088266      -221.7586337327      -225.8062926682
Ar     -1488.0266961083      1305.5198284827       196.0379137867
Ar      1389.2793297012     -1075.2439254642        48.4223308698
Ar     71265.3392154089     72604.3268178443     55741.0227538954
Ar    -70307.6119075017      2713.2759764674     42987.2897114196
Ar      -944.2432290866    -75297.8912916206    -98707.8387404695
Ar        10.2079680096        -3.5038914189         0.2040574107
Ar        16.7917862053        10.3297465710        20.1542529573
Ar        -3.0953720947        11.2760694237        -0.7907926197
Ar ******************** ******************** ********************
Ar ******************** ******************** ********************
Ar ******************** ******************** ********************
Ar    468414.8712040003    -88383.9776288040    277659.6110221191
Ar   -779844.7438403812    135426.6208596189   -451883.4300148709
Ar    311443.4084675451    -47029.6521654251    174238.6405793208
Ar        -4.6185924860        -2.1750406592       -12.3348855900
Ar         9.4639759513        17.0427454125        15.9464984798
Ar         9.6972729548         9.5545476159        16.1199761146
Ar      -856.0942522320      -489.2492866109      -255.1019097712
Ar       312.1646088041        10.7648201106       322.0474597210
Ar       558.1274220673       492.5997764748       -45.2898314540
Ar        45.0641146967        48.6271891560       -57.2568031080
Ar       132.5854591298        -7.6481694614        69.6627764842
Ar      -157.7446642127       -26.0464474998        -0.5335262262
Ar        -1.1052600604         4.4484361928        -1.2343103139
Ar         1.7080401414        12.6799395280         6.0470804063
Ar        15.1272461478         1.3824983628         5.4395155056
Ar   -177416.1283242539    472279.6204334428  -1312735.8071631384
Ar   -331471.0683509811   -397709.0503908818   1080938.5012848196
Ar    508903.7442822153    -74553.8904690785    231814.7663604370
Ar ******************** ******************** ********************
Ar ******************** ******************** ********************
Ar ******************** ******************** ********************
Ar        -1.1550751481        69.3538061110        22.1316255364
Ar        69.3074481778      -105.3893024963      -155.2192811060
Ar       -58.4722176214        45.2441205609       149.7219186311
Ar         0.0149907766         1.6944884579         2.4162764186
Ar         5.8171366572         9.6965315605        -1.7767512392
Ar        11.7937842265         8.8204438652         7.2504918636
Ar ******************** ******************** ********************
Ar ******************** ******************** ********************
Ar ******************** ******************** ********************
Ar    -15464.9115925073     -7724.1981455818      8687.3409575192
Ar      9582.0748833564     10258.5332311374    -13578.3454047021
Ar      5901.2169638071     -2512.8234527634      4906.9283963499
Ar        -0.0914701931        -0.7281451524         1.7180801404
Ar        11.7211332215        10.1052214865         5.9034595293
Ar         2.4999772157        -1.5699014234        11.0049541195
Ar    579546.8055572687 -47084303.1567730829   2020921.8007737789
Ar -58765209.9189725593  27044139.5603611544   2029804.5419575053
Ar  58184919.8804458007  20038185.5682422034  -4050690.7494786251
Ar      2709.2370504513    -10828.2909888460      5991.6249354899
Ar    -12193.4654427284      -524.4271941839      8908.1455724324
Ar      9502.2560845740     11363.1907868449    -14884.9586491264
Ar      -169.9916395991       -34.9090575272      -291.5630280451
Ar       424.0021976373        15.4115054232       429.9573869013
Ar      -240.1105229200        29.8325117451      -132.3755297510
Ar    230643.6030276470   -110289.3052097638    -66747.3545617410
Ar    -71057.9043283271     34199.7770178611    -41750.6947855061
Ar   -159569.8566283736     76106.9629272063    108510.9154030522
Ar       132.5866513093      1950.6813794112     -1195.9272227615
Ar         3.6670288280      -526.3092936967      -359.8308728678
Ar      -121.1508012418     -1403.0043628132      1574.5157159880
Ar         2.7929416812        -5.1966199865        -4.4929840415
Ar         0.4112968096        -3.5212088160         5.0463250415
Ar         9.7809118541         3.7499408855         5.8713654423
Ar         2.3707311627        22.8316818809        -2.3247317686
Ar         1.3029478471         4.6991905406        10.6338675300
Ar         3.8476357122       -14.3345554087         5.7976692432
Ar     10804.1723153175      4574.3362335758     -8821.9404159327
Ar     -1146.1736903210      6765.7015674281     -5055.8937305452
Ar     -9638.6529179627    -11330.2746129976     13883.8763830292
Ar ******************** ******************** ********************
Ar ******************** ******************** ********************
Ar ******************** ******************** ********************
Ar ******************** ******************** ********************
Ar ******************** ******************** ********************
Ar ******************** ******************** ********************
Ar         2.7480937791        -0.3754473429         8.4592230282
Ar        -3.8577425975        -8.2022684285         1.6994261791
Ar        18.1142578706        16.4307201619         4.7287141154
Ar       778.1163986887       903.0212469403       132.9561678465
Ar      -400.7911618019      -274.9414165077       257.8664324316
Ar      -369.9715816805      -617.5067420380      -374.3865672718
Ar         2.1052386311        -4.6292171588         6.5691937750
Ar         9.7832628698         0.9868079278       -56.3086859319
Ar        -0.1047044986        18.0179936957        73.5499322791
Ar        -1.0914518012         6.6266316000         9.5252135191
Ar        15.7819701739         5.1508681447         1.5215380676
Ar        -4.2505193363         9.0554941105        12.0823464509
Ar ******************** 205741648.8909818530 -38830925.3472524583
Ar 216783976.5421174765 ******************** 313949002.3483037949
Ar -51399155.6012496948 -87678059.6960968375 ********************
Ar         7.3505054278         0.8884896704        10.9700544843
Ar         3.2567456976        10.2657427157        -2.5687381026
Ar         6.0271098997        12.9984827417         7.8806222585
Ar    218573.1322737645   1016993.0507852421   1020982.9468749155
Ar  -1000842.3101446710  -1660795.6825027142     69309.2735460086
Ar    782279.1047971069    643810.8896976156  -1090268.9657369503
Ar       -27.3680049506        22.3306718591       132.2170626586
Ar        17.1461269327       -15.6072636114      -105.3958731093
Ar        28.7666659172         0.9952656525       -10.3849240764
Ar -13745483.4148185477  12592265.0765429847   9793059.8878796101
Ar   6702352.4399845656 -10556471.7274791598  11390870.5294664633
Ar   7043144.0952048739  -2035769.4873249847 -21183912.2192188874
Ar    109643.2143589470    218868.6873654481   -237871.4262725758
Ar    -15446.0929967637    -24170.6404977411     27273.0096332634
Ar    -94184.6416389685   -194682.7464979644    210615.1017861862
Ar      2961.4875472127     -2667.9571839517     -2140.9932649159
Ar      -368.8275346079       939.3762193618     -2164.9871498355
Ar     -2589.5140456629      1745.2270460432      4321.3718786849
Ar     12531.7719685113     31635.3156846580    -49181.6258474293
Ar     98620.0976144399    -42062.6891184671   -138525.9668439547
Ar   -111143.0748242554     10446.6656533159    187728.5976639086
Ar ******************** ******************** ********************
Ar ******************** ******************** ********************
Ar ******************** ******************** ********************
Ar      7977.5283012545     43972.2772578641     85557.9797532456
Ar   -118943.8333699152   -139937.9723188097    -90808.5507325536
Ar    110979.3274956204     95976.7339170521      5266.4900583171
Ar      -256.9892292599      -100.7221016314       102.3913590344
Ar       184.4518914532        42.2727381065      -121.1527216377
Ar        84.4752514681        73.0545926636        32.5485021571
Ar ******************** ******************** ********************
Ar ******************** ******************** ********************
Ar ******************** ******************** ********************
Ar       -40.5438822087         2.4153264018        32.2672527192
Ar       -13.9159313269        23.9990486747       -14.9352244630
Ar        59.3020482759       -14.2359124219        -3.4464450192
Ar     15579.5740536601        93.6061921638      7408.8140624037
Ar   -145667.6427177027     36865.1513253572     10352.1207010823
Ar    130098.5753194665    -36940.1542740986    -17738.7266256877
Ar        10.9732317715         4.6421948376         5.5723748256
Ar         8.3791834925        12.4961474451        10.2272870948
Ar        -5.1806757926        -2.5836521280         4.3961199966
Ar       -85.7146270681        81.0094463519       411.0947845947
Ar      -828.0197876242       798.5649974172      -884.5998079847
Ar       923.9104798885      -861.8836332010       496.4942103825
Ar        13.4593425964         2.6922399564         5.5260845169
Ar         4.9904925076        11.7475869662         5.2675214063
Ar         4.5854984736         3.1564075902        14.1776936927
Ar    -18469.0950684642     -7261.6242624332     91755.0175823389
Ar     41657.0345587413     15747.4620362378    -61145.5065918433
Ar    -23169.8758346819     -8467.0596672331    -30594.0925314433
Ar        33.0111303348       -91.7168299335        69.9917985755
Ar      -709.7852391092      -296.5555187393      1010.6461939226
Ar       685.3960980601       402.5419297009     -1066.3633029786
Ar    -31581.9552583051    -99165.3281424242     29494.9158729385
Ar    -25789.2392413223     88355.2153599867     64301.9317971540
Ar     57385.0137708956     10829.8095992135    -93780.8690668276
Ar   2241513.7606684989  -6011080.6321962886    694465.9814578409
Ar  -2144412.8342477893   5023608.8410399463   -630564.8568296558
Ar    -97089.7450525521    987483.7471981323    -63884.6688468917
Ar         5.8302756701         8.8219426854         8.4155227326
Ar         6.6344509944         9.1804964450         8.3838499195
Ar        -2.7799222693        -0.9103097320        -1.2155038326
Ar    -69217.7222761895    -33769.5987830693    -45269.9916078231
Ar     86044.5225062998     31876.6291762292     85462.6295828788
Ar    -16818.8627919854      1901.0215354375    -40175.3980928387
Ar       224.5814891042        63.6406212484       -89.3556528307
Ar        -8.0488043931       -99.6768965352       -54.3593785079
Ar      -194.8456891586        39.2303966634       165.0250037779
Ar      -179.6226600268      1208.4754503342      -172.4681364036
Ar       187.7474050376       -62.3335026320       115.9090402123
Ar         9.1971203594     -1135.0823186755        67.4507285908
Ar      1597.4405252425      1897.2632030579      -782.3103633675
Ar     48699.7920864682     57621.8432404185    -23965.9629838791
Ar    -50272.8260008701    -59499.6463120026     24768.3937249280
Ar         3.1352383601         2.6099469595         3.7257436533
Ar         3.5476506182         2.8185237310         2.9756278153
Ar         2.8050080165        11.6254584773         2.9530814485
Ar         7.5897486264         1.1782159555         9.7093567864
Ar         7.8783596036         2.1633817183         5.9033276226
Ar        -1.2596137066        -0.1432241328         1.1108309099
Ar    -26642.5612103441     14400.0331639382     28083.1855165266
Ar     -8852.8014490115     24410.1250104995      7778.8363340768
Ar     35500.6986165288    -38797.1754844855    -35841.2456842165
Ar ******************** ******************** ********************
Ar ******************** ******************** ********************
Ar ******************** 946562250.7355747223 ********************
Ar -22968025.2018774189   4825253.2109240303  -6990247.7196045313
Ar   1342058.7635634216   -443300.3130793859    944644.6452658903
Ar  21625978.5631708279  -4381939.0857518353   6045614.7244740669
Ar       -13.5417102961         7.5907538495        45.7409723783
Ar        -0.2414709000         1.0577706586       -18.1317983928
Ar        29.7432782752         4.4464269126        -9.8496098500
Ar    -35430.0973041721     44423.8201618067     27075.1202693054
Ar     18532.5306776768      7828.1636648111     -7685.0910083644
Ar     16911.3608539091    -52236.9029933169    -19385.6961704179
Ar        11.5734981709         7.0536258045         9.2797483543
Ar         6.6024689498         2.4044331064         8.7143561513
Ar        -1.2886772856         1.6370704432        -4.8691094723
Ar       -17.8490619571         7.8891744129        36.3890350600
Ar        26.4763555631        11.0292329603       -24.9676518498
Ar         4.0482911843        -3.8780497806         5.8359410086
Ar      2886.9596601442     -1822.9660798735      1314.7601074090
Ar    -11613.6173349343      -535.5663861528     -9074.5714017243
Ar      8733.5624351166      2375.9746275291      7773.2102097990
         600

Ar         2.3910418177         5.3350939990        -2.6436121365
Ar        -0.6628351752         2.3038268636        13.5485489465
Ar        10.0202640273         5.7708087299         2.5223650060
Ar        -1.6768279932         5.2835773747         6.4023748715
Ar        -0.8637864548         3.5879248943        -1.8676146818
Ar         9.9886323855        -0.7290841672         7.1833614610
Ar ******************** -51147612.1502957046  95694788.4264256060
Ar  15398278.4275971390   3007300.3717255034 -95791041.1161450148
Ar  87283735.7068964988  48140326.4853195846     96268.8745737299
Ar         6.4157178985         5.7367231565         3.8836891448
Ar        -4.9531639790         7.0410074633         4.0908397259
Ar         4.9800734695        -2.3778007397        12.5848098753
Ar   6528695.7216732781 -26895635.2695617899  34089739.9598273188
Ar  17808868.0954313651  12572673.9970671795   8852776.5611484088
Ar -24337559.8493228145  14322978.5154783018 -42942494.2051904723
Ar         4.1881586936         6.7410317309         4.6684866398
Ar        -5.9114215387        -3.8193006283        14.2084923523
Ar         4.2075468603         5.0492583742         3.2482637092
Ar      -987.9398906685    -31505.8639671780    131241.2820848199
Ar    550410.1423992976     42289.6129464333    599906.2585854604
Ar   -549408.5755658927    -10774.4215068038   -731123.1294765364
Ar     22360.0515632198    -29886.2507681334      6063.3824593435
Ar    -12264.4106069558      7966.2496250320      3203.5559713869
Ar    -10078.0263619728     21927.8294594857     -9248.6459630263
Ar         5.2425768336         8.7335188537        11.0369802543
Ar        -2.2842021889        19.6587654423       -12.0049861058
Ar        14.9575067402       -10.7907016564        13.1283413638
Ar       -22.6872551034        -3.2992968369       -43.7339999016
Ar        12.6494299830         7.4529544987        24.6158664697
Ar        21.3649031804        10.9554563824        33.2468910666
Ar        13.0236902385        59.8319255003        31.0689974288
Ar      -271.4316226414      -121.2096275744        71.7744588283
Ar       276.5578526158        71.9152694492       -90.9837850283
Ar      1243.3967702600     -1371.2325284723     -1779.8520833579
Ar      -650.8958776402       726.7765399905       746.5764885033
Ar      -579.0749817873       655.8797048156      1044.6303185133
Ar     23591.2571113951     61953.1593844650    113611.0165095859
Ar    -74984.8205874254    239480.8093559224   -218480.6150151448
Ar     51400.7665649072   -301426.4998592976    104887.8877747844
Ar        -0.4653948405         0.2246679167         5.5609299737
Ar         8.3096973919         7.2736350915         7.2649184662
Ar         8.1562933736         7.2702897432         6.3727951295
Ar ******************** ******************** ********************
Ar ******************** ******************** ********************
Ar ******************** ******************** ********************
Ar        16.2066392907         1.3603871908         0.5610310596
Ar         4.0492866617         5.5235174889         7.3503250278
Ar        -5.5564633187        -1.2950292045        -4.7316467087
Ar         2.0201678060        12.9377681216        13.8403438510
Ar         8.6088262658        10.0941214407        -1.2703278913
Ar        -3.1929974225         1.9581756913        -2.3041119895
Ar     -1228.0629909580      -196.2305442884       613.0577610821
Ar       788.3300047813       201.9825344726      -277.7684721093
Ar       453.1816157726         4.3952206457      -319.2316649494
Ar   -465831.8414607430    793538.1715951437   -765747.6539919924
Ar  -1008652.7210400652  -2344827.0825923537   -876444.6905727644
Ar   1474499.6465517285   1551305.5015089214   1642203.3713001497
Ar         6.7634335624         2.7568661190         5.3769966762
Ar       -23.3017168676        18.4388860896         9.5666983817
Ar        36.6048712206       -11.7948769298        -3.2303817117
Ar        31.4300131022       -22.4063023138        24.7901354776
Ar         5.2844327925       -27.6503676737       -39.5768783286
Ar       -16.4066474004        66.1228692365        36.3838228832
Ar         2.0612422526         1.4176992516         7.2705601944
Ar        -1.0129776314         1.5416679344         2.3042666619
Ar         6.8808500194         4.2156224632         6.7753473526
Ar        -1.1961598287      -160.1707761764        60.4914232483
Ar       -97.3669738118       264.0565870347       -99.0475026357
Ar       120.6465867371       -90.4920254882        55.2047164279
Ar        -2.2483832801       -20.2349140304        -5.1789163434
Ar        12.2315526412        26.8963928273        19.3201393377
Ar        -2.0910498463         6.3003378989         0.0955604943
Ar         2.3762198234        10.3949197444         3.3379705758
Ar        11.5032050217         9.8854234654         4.0401941184
Ar         1.7432704034         1.3326925749         3.9106895770
Ar ******************** ******************** ********************
Ar ******************** ******************** ********************
Ar ******************** ******************** ********************
Ar         4.3725426767        11.6997989086        10.5364948601
Ar       -19.9592989208        -1.1413783764       -18.4381488555
Ar        30.4246098840         4.3340571575        15.0251968710
Ar       108.6145762545      -220.8464119204         0.4891952320
Ar       -45.3721213686       170.4690831136        52.0170670654
Ar       -49.5350175328        56.5016265609       -41.3729567894
Ar       206.3794513234        24.1928924590      -165.6033068385
Ar      -224.2993041613         2.5994756692      -206.9556455614
Ar        27.0048853125       -11.2205175213       390.6293621885
Ar       -20.1260650725        27.0735992988        26.1739118545
Ar         5.2816951623       -10.4489375088        -4.0013539926
Ar        25.6763712535        -3.6513399836        -5.4889112034
Ar        -2.3277743139         9.2142276276       -12.6515831434
Ar        -1.3388003673        -9.2889222571         3.7452471483
Ar         6.6947018847         8.1610900482        21.2226680825
Ar      4615.2198087342     -8694.3278313530    -39676.9455127269
Ar     26220.2212681597    112046.3666532608    149131.9260808048
Ar    -26651.3291845213   -122882.7676926721   -160354.6300445101
Ar         3.1403689915         9.6910124855       -10.8011787899
Ar        12.1520123787         3.4794520657        10.8043626789
Ar         1.4577799394         0.4983252822         3.0066275006
Ar        14.2769506526         4.3734089221         0.0852108286
Ar        -3.2306573378        12.6143587801         0.6795216883
Ar         5.0195073514         6.4029095161        10.6136936425
Ar       -54.7077750448       -37.8389493747        14.6139189687
Ar       159.5510699052       -48.9535090442       122.8133564909
Ar       -88.4115369264       104.8531831520      -116.7507014013
Ar       104.5923021867        35.6288073479        -2.8737910357
Ar       -11.3921168874       -97.1799368441        68.4987550883
Ar       -80.9859226943        77.9069241719       -52.9929426294
Ar        -2.9314838590         0.4106099574         6.5550591654
Ar         7.0183073809        -3.2512605316         8.7195012009
Ar        14.1684712497        12.1862881838         2.6001979368
Ar   -192467.7249998023    -79651.0838276362    -49610.3176427475
Ar     42311.9258949221   -178043.4396299970     32795.8919303753
Ar    150174.5030091883    257710.1320937076     16825.1506410593
Ar  18071650.8566197455  -8599019.1877527609  76460000.2120400816
Ar ******************** -27728458.4411488324 -30610667.4171877503
Ar 204249947.6366662979  36327496.0562277734 -45849321.6323190928
Ar         2.8505320228         3.4067525480        -3.2379476544
Ar         5.4408561417        10.3972500990        -2.8347241271
Ar         5.3771813589        -1.6920952151        16.1144169622
Ar        32.2492974410        -3.0683093566        -2.9515926467
Ar       -11.5283919976        16.5620275419         2.2549235714
Ar        -7.1618891661         1.0493978883         5.8646900574
Ar        -0.5087004125        12.4688150161        -0.8845336934
Ar       -21.0237854055       -16.3234811766        17.6652508226
Ar        32.6383381167        -2.8893104550         1.4568132934
Ar         7.6870132983         3.0854738782        -1.4431494516
Ar         3.5682532793         9.0066399283         9.0074195975
Ar         7.6701253909         3.4215616524        -1.4701987231
Ar        50.2218368896      -522.9681528457       512.8012578063
Ar       -36.1503861499       736.3024861654      -236.2765982402
Ar         7.2598850522      -202.0486210728      -262.8832296428
Ar        -4.9805574171        20.6796360808         5.0659356123
Ar         2.8000555001         6.4400820811         6.3394770068
Ar        10.6385063829        -2.9942450130         7.1692013074
Ar        69.1318718823        54.1016335768        68.5584522881
Ar       -36.6546214366       -29.1112512674        14.3455633280
Ar       -18.6185653416        -7.6384159793       -66.1427434253
Ar         1.4406475654         8.9697502801        -1.0858905213
Ar        10.9352562077       -16.6052819374        26.6876470640
Ar        -5.9909347634        19.6482765902       -15.0783094686
Ar        10.0198995304        11.3619279125         6.4601890149
Ar         9.6743178975        -3.4652518102        -2.7791630468
Ar        -0.2565050562         3.8737817539         5.8647331825
Ar        -7.5038813699        21.3093321044         3.4521585254
Ar         5.6714122233         2.2966197406         3.2751281473
Ar        23.9406772557        -9.0533999102         9.3274807312
Ar         2.6321795853       574.5841402428       262.5165259785
Ar      -353.0970325035     -1057.8254586022      -698.3470247623
Ar       365.9420238322       498.2215520251       451.0302082682
Ar         5.3007648866         9.0385784080        -2.2196017054
Ar         2.9732368571        -6.0246816151         9.5629171242
Ar         5.8216562235        19.3894235173        -0.1618915255
Ar  -1483553.0338469527   1369192.6061133828   -222418.9926820660
Ar    206028.8422445247   -165114.2384105266     85537.3446085522
Ar   1277536.6070561239  -1204064.7583921032    136898.7500316477
Ar         3.6961762411         9.1823675913         8.1502050811
Ar         4.2501166594        -1.2928669158        -1.3135452492
Ar        10.0839245574        -0.3388162942        -2.1462376863
Ar -13090132.3724747673  -6470748.8920283699   8699799.5224455222
Ar   8232510.2638551379   9697694.6035250723 -11073431.4606715012
Ar   4857634.6333695641  -3226933.8913797662   2373648.3490980584
Ar ******************** ******************** 646178328.9340631962
Ar ******************** ******************** ********************
Ar ******************** ******************** ********************
Ar        -3.5655565283        10.3749445983         1.9426951931
Ar         5.9546402524         1.5120995211        11.9609878617
Ar         5.8794506426         0.6342692998         2.6757711743
Ar ******************** ******************** ********************
Ar ******************** ******************** ********************
Ar ******************** ******************** ********************
Ar     35767.5295436488     13759.6928624452   -112871.9310118038
Ar    106062.4963263406     28418.9840927540    -48741.7020110118
Ar   -141818.5355756364    -42169.1345646317    161622.1963986096
Ar      1007.0751498709      -255.4121402864      -730.0714182859
Ar      -669.1114349217       383.9813643316       747.5538379400
Ar      -328.6067284892      -120.8384680272        -6.6226112026
Ar       -41.0743884181       149.1376377552        15.0585880008
Ar        35.2131248775        71.7690821460      -131.7394220604
Ar        11.8842790101      -213.7264996333       130.8576977571
Ar ******************** ******************** ********************
Ar ******************** ******************** ********************
Ar ******************** ******************** ********************
Ar    -80845.1149723894    169179.6536725091    -80625.2506683571
Ar    108795.4733027779   -118580.3713875200     87495.9295342238
Ar    -27935.2580643500    -50589.8679318778     -6847.6056537035
Ar         0.7654404637         5.6000710424        -0.3560483381
Ar         5.2570504926         5.5397444727         6.6224681998
Ar         1.4611531706         6.1786643704         4.0228767318
Ar    -11830.5447864652    -23463.4135381882    -23551.6899555154
Ar      9862.0916071936     21457.6444136516     23101.5600534045
Ar      1982.0186283364      2021.1832346614       463.1895327297
Ar         3.9932954637        24.9705498822         4.5295138933
Ar         5.1901709929         8.3789043905         4.0975341256
Ar        10.4959474556       -14.0180110402         1.0453679420
Ar        -3.3801251902        19.1772421198        15.9148592328
Ar         9.3133313194         4.3929493878        -2.6488379440
Ar        14.0274667259        -5.2478251849         2.9813291636
Ar      -651.3495846942        12.8426071128        23.9394381737
Ar       -37.7869080238      -294.0207275499        30.2599209184
Ar       695.8488597668       297.4512332902       -40.4737496191
Ar    -98610.3449942670    -67728.5490692078    -98799.1845041541
Ar    324903.0390616748    -26557.2938593197    -35864.8801442073
Ar   -226285.5922239966     94295.9928500669    134678.4407802466
Ar     -3489.6347925349       435.7506952674       113.0516610436
Ar      6280.5985528068     -1764.7286991454      1170.6126338988
Ar     -2771.4494389316      1341.6446970915     -1275.9957628267
Ar        -2.4797029836         1.6325995808         3.8338791592
Ar         6.6946559228         2.5632071658         5.1693383239
Ar         6.3812558427        11.2974331958         4.5143331766
Ar        13.7999726101         1.1984456330        -3.3501845168
Ar         1.5310903228        12.2144487733         2.0303909278
Ar        -6.7417820771        -0.1519656363        13.8438212883
Ar     79717.9459603652    306117.8824381474   -431900.6946643705
Ar   6793892.4916299414   4103729.8537642616    961568.0473588567
Ar  -6873595.6700338442  -4409834.5717377206   -529649.4845412076
Ar      -833.4198287167       786.5512929800        77.4215162100
Ar      -855.6616851250      -441.8167757296       380.6159398644
Ar      1694.1542397491      -335.9433096301      -451.5144265590
Ar      -170.0542969377       -67.7367281375       -57.8239145817
Ar        85.0484654167        95.2589151929        94.7666296471
Ar        98.5496459166       -11.3697111529       -18.6169701127
Ar  -8682397.4916693326   -795827.0699211909   3982577.7872884651
Ar    418539.6569130551   3677206.7974972171    441914.1983277719
Ar   8263873.1347440425  -2881358.5252773748  -4424471.9325294616
Ar     44126.3467745229    -18540.6714554784    -30356.8945856994
Ar     -6220.7906914196     -7499.5528176854     10834.0735178584
Ar    -37886.9002646243     26059.9991921623     19536.2759744830
Ar         9.8252160662         0.0681410987         6.9710403973
Ar        -4.7504693567         7.6838652884         6.5419595541
Ar         9.2099956672        -0.0470831903        -3.9141505297
Ar        12.5932237455         8.6765263539         8.5992780537
Ar         4.2082408195        -0.2738770620         7.4327485917
Ar         4.2187266065        10.1593589237         8.4521544647
Ar        59.7745760510       200.0541642230        61.9716099816
Ar      -493.4330837877     -1277.4032732325       123.1094926750
Ar       446.1977565439      1092.6434386665      -173.2263251519
Ar ******************** ******************** ********************
Ar ******************** ******************** ********************
Ar ******************** ******************** ********************
Ar    -33247.8642366454     64837.0972017369     67305.7935218078
Ar     50192.1489731715   -118151.3720293202   -134461.4671632442
Ar    -16930.1143737686     53318.3441198601     67168.2072226271
Ar        12.2144731550        -0.1212063801         5.1895443211
Ar        -1.5564456356        11.6424456231         8.0928400570
Ar         9.2974186907        -6.0081567138         4.2847915869
Ar         8.6581086909         6.0239338107        13.2342523721
Ar         8.4289679583       -11.9663184224        -0.4173552873
Ar        -2.5638321382        20.6645596280         6.6058335580
Ar        19.8626758194       -42.7713504491        28.1168403500
Ar       140.0191616756      -125.8916140880       -47.8127910002
Ar      -149.3237002245       182.8213368449        40.6314170663
Ar        46.4678057480       -38.7877852656       -42.8586154205
Ar       -89.7422532087        94.5387395445      -180.8565578059
Ar        58.8887951058       -45.4687152740       239.3370690526
Ar         2.7224726374         3.6453242684        26.6395064063
Ar        12.9957903810         6.3888471660       -14.5779537841
Ar        -3.2942869683         7.3454719094         4.1902026315
Ar   6559998.4860264137 -13026518.7234452702  -2043641.7616390456
Ar  -1176920.1657723519   2895448.5943471417   4752769.0846372796
Ar  -5383062.6332172230  10131089.6849924698  -2709110.1155757061
Ar        22.4324076937       -14.6784293265        59.5378110298
Ar         0.1293527512         4.6362623041       -11.7807858093
Ar        -8.9106260306        15.9906937291       -37.4009532283
Ar     -1515.2200780134      -815.3711681764     -1635.7927162782
Ar       849.6016019490      1456.5676845110       514.3275231987
Ar       681.5871080101      -623.8078652745      1136.4133790053
Ar        -0.5519689578        -0.8791303317         3.4089737643
Ar         2.3512471101         9.0137654083         4.8060728492
Ar         9.3765985267         0.5057688604         4.1868786632
Ar        37.5819102853      -172.9172693814        80.0035609934
Ar      -152.9087143876       177.8895790169      -126.2261532583
Ar       129.5819999349        13.6257858474        56.5774239458
Ar        51.3120604501       -46.6158871099       -51.7994191108
Ar      1029.9246199117      -340.6250888946      -240.3503760746
Ar     -1066.0224282943       397.8069699474       300.6162812520
Ar         3.2105933882         9.7465867934        11.0095519165
Ar         3.7319776992         0.5304681141         1.0217778203
Ar        13.3613762935         0.3567879037        11.0924033096
Ar         7.2710103598        -4.3621775859        -6.2713161820
Ar         9.1798889618        19.7749767140        32.3612107542
Ar        -0.8797477559        -0.7099880101       -16.1258429991
Ar        -1.6215376352        -4.0476477856        22.5544670725
Ar        13.6073199559         6.4569854105        -6.0000086872
Ar         1.9358380335         3.0854005469        -1.6831472965
Ar         8.9908856504         1.6648183898        10.5577381358
Ar         0.0895272223        10.9639112018         0.4821647342
Ar        -0.2093356719        10.2026781371        10.0904563854
Ar     10665.1919793171     -8255.9795394091    -38676.0251619555
Ar    -11658.4852634577     13032.0706551172     21341.7745126905
Ar       997.1949180000     -4759.9212984254     17347.6908990838
Ar        26.1776809754        -7.5406943294        -8.8298594816
Ar       -19.3682241044        -7.4471925871        17.2962304855
Ar         4.2563113654        24.3293237644         3.5788398908
Ar         8.9416440519         1.1127221182        16.2220626333
Ar         4.4595571529        10.7852111323        -2.7439648370
Ar         6.6460425936         1.8033487235         0.3708854883
Ar ******************** ******************** ********************
Ar ******************** ******************** ********************
Ar ******************** ******************** ********************
Ar        12.6742197500        -2.9547252879        -8.3578244273
Ar         6.4464327380         6.6697801206         9.2687793893
Ar        -5.7419459434         7.2399588900         7.2538496064
Ar     10759.1256058641      6497.6288542085     29324.7018803880
Ar     -5807.0423844502      3284.1247884709    -26860.7680251979
Ar     -4939.2858469718     -9761.8716496381     -2454.4278225229
Ar       271.6628485405     -2104.4413805588      -315.4451815821
Ar      -493.8571129117      2542.4444370937      2493.8994306437
Ar       237.3773292511      -418.0253070814     -2169.9081931567
Ar         5.1245904634         3.3646791006         5.4531320104
Ar         4.7062452838         2.6516916437         5.1483401016
Ar         4.3114782180         3.1766682496         5.7355542306
Ar       -17.2284451885      -258.9695497364       -56.9224456112
Ar       -84.0134996861        72.0966209527       117.8836481486
Ar       109.1410361461       200.0087638629       -41.9928701371
Ar         7.7120878486         7.3656426421        -2.3077118562
Ar       125.6935468524        75.1540539289      -166.8711429161
Ar      -116.6975609779       -68.5555646038       184.0447300811
Ar         7.9267258119        14.2801388129        12.0659017754
Ar        10.9768729904        -3.4910340932         0.9765035706
Ar        -3.3239365970         8.9548838676        -1.8571309343
Ar       570.7288308887     -1567.5365970395       419.5460064369
Ar      3967.8377436513     10171.8807403352      -154.4481731601
Ar     -4512.7221810022     -8589.1130211578      -263.3508149746
Ar        -5.8937327343         1.3147171065        14.8903091719
Ar         9.6881923367         2.4488967321         3.6870852214
Ar        11.3365102622         2.9342977831        -9.1524566432
Ar       -33.2907254835       -41.9834111687       -44.4064182343
Ar        38.8018641356       104.5339864140       -72.4109006462
Ar         5.8838145171       -50.5211372267       133.3958883298
Ar         9.8519413763        -5.2877090930        -6.4303547097
Ar         9.9638810652         3.3031410256         7.8240661445
Ar        -4.9185358741        15.6403713550         8.6229600171
Ar   1482078.5826819171   -728286.0432068044   -158750.1858720245
Ar  -1044079.3307854523    654531.7136470035    421582.6327534894
Ar   -437983.4733777201     73769.8530675969   -262822.6416181635
Ar  -5274871.3577161320  17666922.0373104103   6846572.9111771928
Ar   4135958.6889573475 -23827123.0829604156  -5849794.4486893006
Ar   1208202.0142326225   6234594.4512939993   -998406.1070073042
Ar        10.0259168815        12.6553639953        10.5889481698
Ar         1.8802241953         5.4394812482         2.5916268006
Ar         1.4999895488         0.9862423777         1.2790959192
Ar   3198065.1986205047  -5504203.5328879319   6596485.7894638199
Ar   4795648.6515113581   -465627.6573270253    108529.3027017512
Ar  -7993701.3318520021   5969837.4778990224  -6705003.7560965847
Ar   -288629.9216104309     81737.4117762875   -234278.5839324295
Ar    229903.8869732954   -590342.6419098182    356546.4786819366
Ar     58738.3006355531    508617.0887486532   -122254.8193624058
Ar         6.8842754309         9.2424294214         7.5983161313
Ar        -3.0286188971         8.8974462913        26.3677289859
Ar        13.5252672999         7.3215382129       -14.7791680581
Ar        13.6006032074         4.5494944070         2.1315007567
Ar         1.9974181933         9.5136487398         6.8199576358
Ar         1.0200152868         1.4319394679         9.0843616405
Ar ******************** 474345979.4226701260 ********************
Ar ******************** ******************** ********************
Ar ******************** ******************** ********************
Ar -16063177.2538339403 -26124225.6670279391  11790605.8003942184
Ar    206187.4719440620   8668863.0655589998    223735.9896563222
Ar  15857000.5876194909  17455378.8135406412 -12014326.0536618102
Ar      -141.5077820472        41.1865793756        35.2462738867
Ar       151.7845445438       100.1394978209      -112.1070677908
Ar         0.2080466603      -136.7755547825        91.5056339962
Ar      -182.9945606054      2596.3010456855     -2069.9002377776
Ar       -63.8884081852     -2331.1473252232      2047.4259551497
Ar       255.4904665424      -255.2466871856        39.2699610260
Ar         1.4014264987        -0.8519607262         7.6097091516
Ar       -12.5249891580        19.0483809777        -2.5565529376
Ar        23.4556065344        -3.5939717626         6.6276334041
Ar      1203.7998219469       435.2689947134       485.5649502383
Ar      -850.7209537752      -446.4900601169        80.4674421484
Ar      -351.3036298085        24.2771140945      -556.2478221571
Ar         7.2001278776        -0.1232342821        18.7481486706
Ar         6.5571357997         1.5314197368         1.5298786350
Ar        -2.7557964216        11.5852662865        -9.3927804003
Ar ******************** ********************  -8118989.8604347035
Ar -86504803.6123374701 290615596.7084139585 105658474.8523399830
Ar 419172565.9377063513  32463134.0302200913 -97539470.0274139941
Ar    217891.4373275464    489783.3240330489   -454971.5625647223
Ar    -53680.8139688652    -99209.9943903527     93413.3654669732
Ar   -164194.0158737147   -390560.7693480921    361570.2362110178
Ar -69387259.8214692473 ******************** -98360186.2109296173
Ar 218339887.2061082125  67727694.7225188315 -69603227.0302008092
Ar ******************** 144017451.1477808654 167963424.7557508051
Ar       374.5551376915       851.2514846921       477.4664231988
Ar       250.8935450754      -141.8916764468      -245.8195374552
Ar      -613.4133831539      -689.8267935445      -225.0978357705
Ar  -1729929.8182670921   1073102.4406633652   -408650.1762426237
Ar   1551936.7464007933   -744959.7447512939    152053.5845476537
Ar    178010.8353932193   -328132.4650418255    256615.7452598707
Ar        -2.9344366464         5.7049716845         3.5037173824
Ar         6.4069912922         6.5837127918         3.5226935323
Ar         5.6477348451        -3.0903519921         3.7345298629
Ar         1.5034190681         0.1199840200         9.8660980426
Ar         1.8035632355        10.0143492765         1.1417826898
Ar         1.6059033965        -0.0714475284         1.4395091935
Ar         3.1584214071         4.3435229287        -2.4088476545
Ar        13.6637085750        -6.6178054252         8.4732447026
Ar        -0.0661816580        24.9749933555         0.0125357142
Ar ******************** ******************** ********************
Ar ******************** ******************** ********************
Ar ******************** ******************** ********************
Ar      -168.5945355542      -100.6129006373       107.3805440031
Ar       421.6961089232      -432.2019055326      -324.5002200486
Ar      -242.6070581476       552.4069993423       231.2684861403
Ar  -2567113.4106622883   1681750.5520638190    374362.3116645747
Ar   1624662.0981905027   -257339.5314080825   -987642.9260351098
Ar    942462.8340133372  -1424395.2329362023    613294.0107065595
Ar       124.2836752779       123.7702243032       -30.9668458215
Ar       -64.4219360440       -68.3963120676        15.7259884248
Ar       -43.5328114593       -32.1139983342        33.8017949775
Ar      -241.4469730292      -592.7951416615       328.3110618313
Ar       324.3578682533       106.2818498294       180.7222780945
Ar       -68.8654898105       503.3780891243      -489.0278168739
Ar ******************** ******************** ********************
Ar ******************** ******************** ********************
Ar ******************** ******************** ********************
Ar         9.3325283482         0.8794578481         2.9841744168
Ar        -1.7010301606        13.4694639596        11.3625207368
Ar         9.0172620384         1.4155050025         3.1663727394
Ar       156.6908428395       162.6971547196       -12.6259048471
Ar      -176.5110224142       -29.6083551627        45.1631209045
Ar        22.6841751805      -119.6577665850       -12.1313008427
Ar    173345.3049125113     53384.5910233954    -51675.6434081604
Ar     41767.5533353708    139867.1308086003   -147798.7687781232
Ar   -215099.5355911407   -193233.1848532739    199491.6325913860
Ar         6.8743606447         3.6578131645         8.2515371785
Ar         6.1374275873         3.5385249345        -0.5609990719
Ar        -2.6365440348         2.8481973809         8.5116986579
Ar        -5.8836857664        -0.2849313443       -11.7816749811
Ar        -7.5647807529         8.5901131262        19.9945299493
Ar        26.3986797339         8.8519474241        -1.5688749328
Ar         9.2169766533         0.6011982659         8.1601652329
Ar         0.1475923000         3.5860795734         9.3773470718
Ar         2.8603414742         4.2644487129         1.0010342415
Ar  -8742316.6572444364   5775097.5388593739   1251166.9161805268
Ar   6012233.3259947132  -5835471.3574330155    455900.7762997220
Ar   2730101.2421211815     60382.8160628593  -1707051.9239726565
Ar        14.7390531929         5.8581513844        14.8361176554
Ar         8.9200655865        11.0284659877         2.2325868725
Ar       -10.0359003984        -0.3761312684        -2.6274496705
Ar      -206.1955543069       113.4232370064       -33.7115562277
Ar       361.3390081763      -206.4294663605        15.5803021441
Ar      -137.1255852190       112.0406152761        38.4620505700
Ar ******************** ******************** ********************
Ar ******************** ******************** ********************
Ar ******************** ******************** ********************
Ar         7.3765191785        12.1910892419        -5.7036555696
Ar         4.4296373762        35.8040301058        25.7841897091
Ar        -8.0023771548       -38.0260678561         2.9831308222
Ar     15483.4828137377    -97559.6288022123     -5268.5046647905
Ar      6760.9129378041     89418.7917342819      -786.0744094170
Ar    -22227.9300643578      8148.5506163440      6060.4157979424
Ar     -7225.3907232980   -338715.5244681493    289873.2584144372
Ar    -24354.4367790688    -28052.9084683797     48680.4650711930
Ar     31595.0689700182    366774.4796240040   -338534.6639921028
Ar     17236.4751074764     -7681.7943930159     22612.9832973088
Ar    -20334.5165830247     -4369.0721203076    -11531.4663253626
Ar      3112.0157771280     12064.1182101511    -11067.6266794354
Ar        13.3004753260        -7.7072400955         2.7460910849
Ar         2.7847959898        10.3868657054         3.3481783751
Ar         0.2994750630        13.4733291068         4.6521485324
Ar      -402.9993928346       387.7732841934       382.9504005415
Ar        94.1663977066       -34.5469728077       -54.6902302285
Ar       330.7299569379      -335.5011442395      -312.8470728315
Ar       -20.0760638331        22.1792162051         8.7756673352
Ar       -20.3013203079        18.4082041383        -7.0362544762
Ar        52.4584100641       -27.2930689943        13.6385001308
Ar     -1291.1161573913      5162.5915732282      2772.5471658925
Ar      1211.8416805341      -114.9701942780     -1343.8300305023
Ar        97.4678084369     -5035.4698656820     -1408.2905040318
Ar     -1206.9120285002     10108.7890339908     -2614.7834203850
Ar      1504.5654533181    -17334.1680130239     -1935.7760556073
Ar      -279.8106178350      7239.1111715573      4565.7807167696
Ar 228252804.2122509480 ******************** ********************
Ar ******************** ******************** ********************
Ar 541402756.9187078476 ******************** ********************
Ar      1180.6541911553        54.3255730527      1425.1248546069
Ar     14372.0868554611      9737.9849970378     22122.2795550497
Ar    -15541.8619581132     -9776.9724826928    -23526.3080886602
Ar        -1.2525626382         8.2544208553        -4.4551628975
Ar       -21.3022717985        -2.9858090684        -9.8385011213
Ar        26.6137345956         3.3480060827        29.3719887067
Ar        96.5408504500        19.1405277882      -301.5678055634
Ar        48.4757232121       -38.6973338960       212.4425282051
Ar      -126.6179199081        32.1783326225       100.2777470239
Ar     38362.0025358857   -121278.3674880755   -207980.3639013992
Ar    296920.6969768124   -332171.0857748205    744236.9041434972
Ar   -335267.3925177067    453468.4479749320   -536247.5312064802
Ar        15.3765154211        26.3239036947         3.6148820245
Ar         4.4756563545         1.9131316843         6.6283684617
Ar        -8.1459390554       -15.8995170880        10.5864308780
Ar        15.0667445218        -0.6809824847       -11.5642233314
Ar        -2.1097885646        12.3817003653        17.7438018275
Ar         2.5221720839         1.6412978659         8.3892609479
Ar         0.6140139856         7.3675648825         2.7230764883
Ar        12.3919459789        10.9633591098        16.2455077816
Ar        -3.5893827232        -1.3719826421        -1.5413388600
Ar ******************** ******************** ********************
Ar ******************** ******************** ********************
Ar ******************** ******************** ********************
Ar         1.7961743195         0.3901068011         1.6349707860
Ar        11.2975836609         9.2730109893         0.8803919765
Ar         1.1912195103         9.5533137378        10.2857256780
Ar ******************** ******************** ********************
Ar ******************** ******************** ********************
Ar ******************** ******************** ********************
Ar         3.6581568909         5.9231064179         4.0944729402
Ar         3.9199684463         1.6562084749         6.0525611310
Ar         3.7085432881         6.9931082200         3.0733942298
Ar       -55.3665066220        99.2349391608        89.7358224533
Ar       -18.5324225016       269.4626531831        83.6742708648
Ar        91.4511305626      -350.6569334734      -156.2063931929
Ar ******************** ******************** ********************
Ar 260611779.7330275774 ******************** 655946298.1485748291
Ar 569679927.5158988237 ******************** 848847703.7965607643
Ar   4536849.8072990440  -1613006.0311196898  -3880931.8945674067
Ar  -3011105.5207149200  -1286090.4279893816   -411631.9519717735
Ar  -1525726.3630697816   2899115.6301244460   4292574.0615260266
Ar      1948.0916773728      2197.2122853383     -5347.4130232218
Ar     -1107.6093180020     -1229.0686634380      2736.3190433490
Ar      -831.7900729109      -952.7918973060      2617.0005328906
Ar        -0.3676080401        -0.9752405238       -40.6014363417
Ar        15.8954288075        -1.6989275819        35.1343606227
Ar         1.7493207402        16.8232387939        22.8105700944
Ar        10.3947664467        -1.9858768946        12.1333270213
Ar         3.6689557485        -6.2908765900         7.8320335319
Ar         0.3887368853        18.5223969534         0.0530614882
Ar       343.4906486250        -7.5818965278        -2.8458076543
Ar        11.2984772826      -468.3787024153       344.7564487747
Ar      -338.8340746337       487.6990314061      -325.2224473913
Ar      -104.2690916581       115.6024562485        83.7604286973
Ar       217.1777638633       177.4692293044      -128.5030702892
Ar       -93.9757730251      -274.9536096556        60.8986482400
Ar        17.1796607439         5.9163703493         4.0879969952
Ar         3.9143110501        12.2178419982         6.2270543335
Ar        -5.8506903003        -1.9182148663        -5.8347596657
Ar         5.5235443784         7.6912491275         5.1033676284
Ar        11.1075509497        12.7260006585         6.2840067241
Ar        -0.2550889197         3.5684183345         6.6266194435
Ar         9.9394109171         1.1607360050        -0.1653403492
Ar         0.2479617332        10.4927653381         8.4498606534
Ar        -2.2984310940        -0.9477199156         1.9677768123
Ar         7.5539083823        -2.4821755159        -3.8472710802
Ar         5.7202861583        12.5279949584         7.7830614332
Ar         5.6499556639         6.0626636299         7.7383468257
Ar        10.1387560659        10.0497028114        -0.1288798025
Ar        10.7825003002       -13.0581519910        10.1348891104
Ar        -6.4821930534        20.5060069982        11.0867222693
Ar        13.3945685150        10.6698519428        -8.0195952813
Ar       -18.7156332534       -12.4463040241        23.4300143938
Ar        16.2073979911        17.6114039021         1.8360272301
Ar        20.0971496995        -4.1115594057        13.6166002141
Ar        -9.5108699293        16.2782914731        -0.2550400002
Ar        12.8280394466         5.2544324894         1.8527687392
Ar      3446.6132933789      8292.1089319656    -28440.2701345420
Ar     -8107.4931339862     -2954.7311531383     23282.7270341312
Ar      4677.1738578663     -5326.3299675274      5167.0547898497
Ar      1657.2124484060      1112.0193341071      1113.3194328629
Ar      -764.9522993335     -1082.6592996381     -1329.9450469636
Ar      -882.5972993556       -14.7691343172       226.3199621831
Ar        11.3202953804        -4.1648454435         3.6517816058
Ar        -5.5847478330         6.7403315822         2.5373693381
Ar         7.2725668486         9.4751437013         6.7628451218
Ar         3.0813269107         2.2350259550        10.2048343681
Ar         5.4423753449         0.3972621979         0.2069427634
Ar        -4.5741955131         7.9026554221         3.7577066085
Ar         2.1142480556         6.7460215154         4.5950910417
Ar         2.9778514735         3.3540772001         1.3051643992
Ar         5.8751538863         1.8373765243        13.3208963572
Ar     36484.1098248497     68859.3137363870     38783.2297922617
Ar    -30197.6446746053    -55499.6012486062    -27137.0189629028
Ar     -6273.4126184703    -13340.0229106309    -11628.7079800604
Ar        -1.3375884244         2.4334264882         5.4401556692
Ar         7.8485666918         3.1809647368         5.8968319218
Ar         7.1437660041        12.0712307312         5.5400983940
Ar   2332478.6933725900   2229126.8984083598    951178.5600995985
Ar   -459144.6429549210  -1557954.2427680637   1391210.7402796070
Ar  -1873317.7323758481   -671166.7231105762  -2342370.8518170458
Ar         5.2766811467        10.5382195418         4.4677904202
Ar         7.8718243425         1.0859533807        -3.3275146490
Ar        -0.9443747729         9.8810808234        10.5685056517
Ar        81.2658447218       536.1608200078      -428.3350934690
Ar       132.7009928894      -180.3940750217       290.4195151891
Ar      -199.4723271792      -349.2965969620       154.9993626712
Ar       -40.5813458785        48.3488694298        17.1263342510
Ar         1.4548876538        -1.8730975671        47.8062895360
Ar        43.5183275318       -30.4845365711       -49.7591376053
Ar 121286189.8548907787 246889276.0085105896   -868092.2043261379
Ar ******************** ******************** ********************
Ar  21213758.5666889846  80503478.5860723853 554682852.2296948433
Ar       241.3480216941       229.5651998754       -14.8626431503
Ar       -88.6584620899        36.3939843844        16.1934517308
Ar      -142.0723115314      -251.5514717671        10.9683979944
Ar         5.8399523311         7.8768741184        12.4655879173
Ar        -2.6169713808         7.6657402503         2.9539122909
Ar         6.1243369847        -1.2377189322         2.3678835670
Ar       -18.0940078329        64.6594489686       -28.9487113049
Ar        -1.4982523323       -15.8996206183         7.9333075170
Ar        28.9945273932       -27.2615857187        32.8861214098
         600

Ar         8.2883443391         5.5818925570         1.7187432080
Ar        -0.0510065388        -4.6358250092         2.5599792075
Ar         8.8672800807         5.3323457648         3.7584097103
Ar        12.7891317153         0.0076068131         4.0321490511
Ar         0.6701895114         5.3774653378         9.3255088686
Ar        -1.9118637793         8.3546026368         7.4147743940
Ar    -21888.1355537639     -9598.7787358923     -5011.7572409054
Ar     19496.9156664271     -4971.4066271823     15151.5550123113
Ar      2414.3771455123     14580.1330237597    -10126.9872926072
Ar         8.0904977570        -0.7133943139         0.7850107899
Ar         0.7781138714        19.5098823067        18.7195254514
Ar         8.8589968037         7.7389342918       -11.4017710462
Ar ******************** ******************** ********************
Ar ******************** ******************** ********************
Ar ******************** ******************** ********************
Ar   -551148.6066960272    -26941.9171376144    498055.7961782389
Ar  -2758126.3919125167   -215754.9271542477   -393576.6866152752
Ar   3309296.6850896487    242708.4643792506   -104469.3216308753
Ar         3.1715826098         1.0206787228         0.7475463752
Ar         6.4666214285        10.1072003586        11.3288662630
Ar         0.7828051007        -3.8662191013         3.1931705657
Ar      1601.3660953871     -6600.9630963260      3461.8345992396
Ar      -787.1562980460      3574.1402316405        25.8347086545
Ar      -800.8440623643      3039.9608951724     -3473.3476497845
Ar         8.3318314660         6.7111506714         3.8934274254
Ar         1.1799362337         7.7427875330         0.7496361389
Ar         3.4026988518         8.0188434468        13.1137260074
Ar        34.7722847676       -46.2583767423         8.5843353064
Ar       -28.4514173085        26.4018507352        -9.0572094652
Ar         0.7173844524        34.6330606672        14.0697784169
Ar    412211.6655342340    306807.8791707309     69384.2422536732
Ar   -123605.0413489678   -104555.5779609468    -29657.8613977467
Ar   -288595.0369756927   -202235.8200726279    -39711.3112200670
Ar        -2.3653201535        10.6751371580         9.0694328503
Ar         5.2792847737         0.2382722087        -0.1789873036
Ar         6.3991962391         9.3222499650         9.1431687700
Ar        -2.1337792279        -0.4109085201        11.5936075379
Ar        21.2092620063         4.9232230812        -6.6098650211
Ar         2.5855669645         6.5583836934        10.0770757588
Ar      1133.0087845340       233.1328239636        91.2261062911
Ar      -651.5756353945       -73.3612720575      -198.8703883389
Ar      -471.5185299647      -138.5059235715       117.2305595577
Ar        -2.9606404267         2.1175271763         4.9506398266
Ar         6.2489177632         1.6333753046         4.6885308006
Ar         5.9496196774        10.8798837777        -2.9839109808
Ar        41.6158457165       -17.9144542046       -58.2654539722
Ar       192.5885846585       -25.5857407017      -107.0051800248
Ar      -216.3356778951        56.8633297254       181.4752250336
Ar        13.7745288133         1.6060966370        -0.3691225481
Ar        -4.4056330300         2.0432414188         7.2117598333
Ar        -1.8135663735         2.0746819738         8.7391788831
Ar         5.5343007402        -4.1275718867        -6.0021397507
Ar         8.4481828563         0.0425287711        10.5893021377
Ar        -0.8428127666        15.7461385989        13.6738166590
Ar         0.3494707040         2.6390952061         5.4222597829
Ar        10.8042505672        -1.0130235138         4.1336724217
Ar        -0.4751628505         6.5840388448         7.0724628324
Ar         1.6617490164         4.5817587355         0.0618781479
Ar         1.9873919369         4.9077640358         0.8128369638
Ar         1.5721302451         5.4387889377         9.5260042973
Ar        15.4274138126         3.6235293400        16.7413121286
Ar         1.9793783308        -6.4453053678         6.1434576737
Ar        -1.6933537576        10.8591947511        -1.9216469282
Ar  -7429569.2894224524 ******************** -26798064.7706825584
Ar  28733746.5882463455 ******************** ********************
Ar -21304169.3683266640 ******************** 468063717.9895187020
Ar  -3358387.0920082158   1603159.9060322931  -1136769.6307403492
Ar -15043922.2342452146  -1401392.0258937059   3231619.0548479110
Ar  18402321.0542665608   -201765.7461970411  -2094838.0421861308
Ar        -6.0968460305        60.6987823437        -2.7684326763
Ar        40.5854325999         9.6361970313       -68.9986180113
Ar       -27.9699743160       -53.5982322817        80.8539526247
Ar     38444.4281144087     55064.0517884679      5471.2379381043
Ar     35780.3892251234   -157761.8805447711    -16821.5956155965
Ar    -74208.3283023761    102710.8635512744     11367.6020541122
Ar         2.0708817163         7.2713427894         5.4036485769
Ar         5.2971279573         3.1291090343       -16.5603176163
Ar        -2.9568186068        11.7976566856        20.8185174056
Ar        10.2729118474        -1.6352086941         3.9246828084
Ar         0.7937338061         9.6530201756         5.5312302963
Ar        -0.5742588018         9.7719806870         5.9368946484
Ar        19.2102544984        16.4069535757        27.8300361995
Ar         8.8436488278        17.7102848375       -25.1421400069
Ar       -18.9080319457       -27.5830934678         8.8920759678
Ar       395.1559998069        -5.2452383604      -262.0233057011
Ar      -243.0160228006       -17.1631412995      -170.5495716084
Ar      -144.6248531576        36.3207736654       451.1453366503
Ar         3.3167504516         8.1118533892         6.0442970325
Ar         3.8409952648         7.4517069112         1.4300228043
Ar         2.3197975806         6.6676180126         2.4502902819
Ar        57.1822287854      -106.4881715278       104.5499495559
Ar      -246.7774748993       247.8931343992      -168.9307005619
Ar       197.9384822982      -126.9348852737        80.1714695930
Ar ******************** ******************** ********************
Ar ******************** ******************** ********************
Ar ******************** ******************** ********************
Ar      1210.8579700243       814.7039406347      1596.2461571884
Ar       -22.8338015580      -510.3278489860      4076.3706470588
Ar     -1178.5969241902      -292.4418986496     -5654.7444266809
Ar     -4447.6188047759     13428.7109848836     -7002.3421382787
Ar      -330.1110838499     -3893.4993812173      4942.3838134018
Ar      4789.8084068563     -9520.8625591145      2066.2374844753
Ar        12.5106215372         2.3487359136         4.0533610263
Ar         1.5301193252         2.1923726973         4.2166368691
Ar         1.0169544826        12.3538341177         4.0263244618
Ar ******************** 951521932.1514496803  74524986.4274716377
Ar ******************** ******************** ********************
Ar ******************** ******************** ********************
Ar        10.3968789041       -16.3856957868        11.3071908804
Ar        -7.3739371286        14.7024695204         8.9681404411
Ar        10.1285484436         8.0260069958        -5.9255651061
Ar      -129.8748869453       282.7481442185      -399.2221393452
Ar       249.5111480263       227.4889852367       -20.4591910843
Ar      -109.0718059852      -494.1239671733       433.4173026002
Ar      -173.0092180220      -220.6099057005       432.8342971081
Ar        88.8590940604        85.4498356208      -311.0094459646
Ar       106.1860567300       154.1780869370      -106.1906700031
Ar ******************** ******************** ********************
Ar ******************** ******************** ********************
Ar ******************** ******************** ********************
Ar      -290.7913636354       682.0317969654       621.9522089363
Ar      -103.5543221223      -569.1405105407      -291.9991902134
Ar       397.5134455166       -97.1834466264      -312.1563273724
Ar        -3.2657640004       -13.9382962928         6.7202246150
Ar         7.8238486300         7.0176757880        12.3014313013
Ar         6.2905595084        16.9377693205         2.2073085508
Ar   -358588.4042190991   1113337.5034198679  -2809589.8363581682
Ar    639583.8952038869   -193506.3915670213    669809.7616121628
Ar   -280986.8486751952   -919824.8660946926   2139786.1258360539
Ar     20758.0106086821     -2450.3582906273     30748.4499573854
Ar    -23531.0634437753     -1895.5711009395    -42114.3985747663
Ar      2786.4866486147      4366.2659447981     11390.5103191892
Ar         2.1060082222         1.5110209830        14.9436480481
Ar        16.8974911077         3.8338650289        -3.4393899821
Ar         1.2512500734         0.6521279436         9.4641858270
Ar        11.1370053596         2.8400135887         9.5533643743
Ar        -1.9709857653        -0.9394482737         1.9189374252
Ar         5.5971464635        14.0837061599         7.6627102046
Ar     -1793.4167762795        -1.3459669275      -887.9052793315
Ar       866.0670627505       735.4470430324      2754.8407802593
Ar       942.7153232294      -719.1911971541     -1855.8812509513
Ar   -181547.1159256064    -55814.2685377776     46403.0303987904
Ar     86962.0238325485     30533.4581905708    -45437.5382854850
Ar     94606.8282403449     25297.2057720301      -940.0519801579
Ar     -1079.9484747788      -134.6208886902       -52.2248980364
Ar       977.5947629913       -49.4977543108        52.2672249323
Ar       120.0864966436       192.5826245102         5.5966766643
Ar      -205.8262038980      -332.3655419972      -239.3257266974
Ar       109.2731082174       -58.5253207114        33.0475558335
Ar       104.8874101645       409.0270734190       227.1061615268
Ar ******************** ******************** 538044734.0417721272
Ar ******************** ******************** ********************
Ar 101895615.8789987564 ******************** ********************
Ar    134238.1173487712    -12111.4913606768    189733.3561158099
Ar     80527.5595757944    -22665.1610739871     77000.8195083196
Ar   -214747.0636403270     34796.9583621720   -266715.0832478846
Ar      2069.5583026134     -4790.6397210434     -5093.1412818393
Ar   -112264.9494880207     71529.3137556140    103950.2256841903
Ar    110215.8626940838    -66728.3073014748    -98835.0421375082
Ar        -2.2016054763         6.0205190672         1.1285284011
Ar         7.6491818700         5.4056610521        10.6790900223
Ar        -1.3740866889        -3.0348816122         1.3305640545
Ar      -193.5803294119        86.9322333517       133.9717879319
Ar       186.4837905564       141.3539266340      -143.0696002376
Ar        27.7126161650      -209.7703109089        23.8011755367
Ar         9.8124654224         1.7135431196        -0.9494623888
Ar         2.0684978217         0.5826761867        -1.5812321465
Ar        11.2341994450         8.4788387302         7.6803661215
Ar        15.7567260266         4.3114032407         5.9488973664
Ar      -130.1931360066       -77.4497560506        71.5436382169
Ar       130.1619666858        87.2909548995       -64.3964125848
Ar         3.7421062475        -1.7360687599        15.6654431627
Ar         8.3990647229         2.7181441962         8.1195923999
Ar         9.9653003682        11.3621742205         0.3964298025
Ar       -30.8374416618        28.8946742205       -96.8299742601
Ar      1039.4756196711        90.1444304833       425.7751488950
Ar      -997.0806160304      -104.5336516980      -315.8748382674
Ar ******************** ******************** ********************
Ar ******************** ******************** ********************
Ar ******************** ******************** ********************
Ar        11.6736241459         3.4439396427         3.3382047848
Ar         1.7850313854         3.7182190394         1.0489329437
Ar         2.3947809768         2.4737753255         8.7444394416
Ar       -34.8245861909        90.6418889557        92.4991359201
Ar       -30.1454127312       -15.4715778440       -48.5451886424
Ar        73.5799449740       -60.4956356843       -32.6765018231
Ar ********************  21681557.0921546407 ********************
Ar 277799467.0181766748  49865431.7284351736 ********************
Ar 980944037.6189657450 -71546979.3986557722 460528510.7755082846
Ar        -4.2973464839        14.2618171490         8.0641026930
Ar         2.2863546534        -3.6452332318        -3.5076383446
Ar        11.0440047382         7.4497136410         6.3620431289
Ar         5.8302351575        11.3774162564         2.2895038835
Ar         5.8036344911         7.3164643709        13.1477301453
Ar         7.7129490163         1.4298656980         1.9123398802
Ar        -2.6285983621         7.6019910994        11.1647544714
Ar         6.8877262724         8.1893251585         1.2713627548
Ar         7.2295290286        -1.9030908847         1.2580872027
Ar    273627.4387541636   -121142.7866229924    138468.8811940005
Ar   -181624.4496741744    -70230.2818340276   -138338.9953178503
Ar    -91990.1467399477    191394.3368205195      -121.3150136858
Ar         7.9756093997       -14.1377239379         1.5715373612
Ar        -0.9752372211        25.5709526286        15.7242940175
Ar        -0.1338736796        10.2460883590         2.6152793593
Ar ******************** ******************** ********************
Ar ******************** ******************** ********************
Ar ******************** ******************** ********************
Ar        18.3351169057        50.3459780749        30.8259900491
Ar       -25.4000347279       -37.2334162853       -31.5243397142
Ar        14.3008493913        -0.7644998738         9.0805932453
Ar        14.4471477946        15.5591098154         4.2745596080
Ar         3.8280830718        -3.1302321846        14.5823872140
Ar        -7.4113182218        -2.7745087293        -6.1528114125
Ar     -2634.6995180281     47240.9372245358    -19827.5754167832
Ar   -747563.3723715462   2513150.5902273515   -590597.2670591222
Ar    750208.2986592212  -2560376.9296574509    610438.7566347288
Ar ******************** ******************** ********************
Ar ******************** ******************** ********************
Ar ******************** ******************** ********************
Ar      2882.1291902751       700.8622268574     -3113.8266921529
Ar      -841.9647206309      -304.9538115720       505.3231188675
Ar     -2030.2450388515      -374.2233004206      2622.0791424718
Ar         3.2135714105        26.8099122311        21.4582351015
Ar       -23.9427354462        -5.6387159170        -8.3316507014
Ar        37.4905685752        -0.4289032731         4.6992078930
Ar        -5.0702903690        -0.8870219147         8.5427643739
Ar        26.6366954404        30.7956182896         8.4795880784
Ar        -8.2411830589       -10.4017692774         1.9601135426
Ar  32319722.4387172163 -69684497.5446550250 -75114688.3134895563
Ar -36835113.9545425400  54016864.6052314788  43678093.3216682523
Ar   4515403.9197131880  15667654.6099958736  31436598.7072702982
Ar    136158.6371527123   1333636.2554577074   -429922.6291133602
Ar   -100320.5390964003   -654488.2121105985    126819.3415634747
Ar    -35832.1072323948   -679131.6975638084    303109.4697517704
Ar -13009056.0200764034    790598.4489149642  -4240077.3307202160
Ar     97052.1206971630    269529.8958157268 -13745666.7022181693
Ar  12912013.5884968825  -1060120.2712950772  17985752.1704254672
Ar   -777899.9463097593   -708281.7419168863  -1811640.3405691208
Ar    347204.3002745358    280361.0580388437    899704.3454352546
Ar    430721.3134527688    427944.3420008578    911954.1143091406
Ar      -214.8038259259       795.0618180845       -42.0528641860
Ar       324.4943321368      -845.9905481121      -648.9128456759
Ar       -90.0794040042        65.5376805899       710.1428258145
Ar         2.8206196419        24.5230909256        -1.8241256709
Ar        25.7032682276       -61.3302681263        27.0194084526
Ar       -18.1004373242        56.3812800569       -14.3172605905
Ar        -2.1955730527        -3.6252547764         6.6332496017
Ar        12.3084352624        12.8596761009         2.3912594288
Ar        -2.9945014656         4.3841690433        -4.3935258907
Ar        -2.1268225493        10.7917490279        16.4721678516
Ar         0.0233019379         5.4019109253         8.5927927127
Ar        19.2692849644       -10.7324756909        -6.5612886204
Ar         5.7680260092         6.0454477815         2.3810182510
Ar         2.6792912789         6.1431758132         0.5084217366
Ar        15.0262092900        10.3608372646         1.4652997496
Ar       299.6991407923      -477.2320362318       804.4531483220
Ar     -1880.8484858162      -118.5814851024       507.0966776251
Ar      1594.2876367568       606.2464802597     -1296.7924798919
Ar -63424922.0741615891   3388658.1681056526  16668924.5227311067
Ar  10623316.1882004887 -32534025.5182276070    715309.0213611750
Ar  52801621.9446664006  29145391.4353388585 -17384219.5254829861
Ar ******************** ******************** ********************
Ar ******************** ******************** ********************
Ar ******************** ******************** ********************
Ar     -1018.7604720986     -4964.8473505929     -3159.8247907496
Ar       135.8887440679       520.6323867812      1689.0250805994
Ar       897.2610143905      4455.3453394554      1483.0090367760
Ar        -2.1898631385        15.6835936212        -1.7761888617
Ar         8.5480999165        -6.5686242372         5.9029852682
Ar         9.0365963019        -0.9002844570         3.0804168528
Ar    -48437.2351184935     11356.5213239946    -53007.1085022541
Ar     44030.3858210298     -9176.0270842414     48723.1804695267
Ar      4418.5877555922     -2173.0658768267      4294.5708371576
Ar      1183.5709481999     -1198.4497872752     -2417.0883452389
Ar     -2373.8535445080      2537.7966953761      1693.6224393308
Ar      1205.2311997879     -1326.8772923019       740.8535783805
Ar       175.0175446530       -25.0651803976       113.5588225460
Ar       252.0217547120      -240.7930847603       420.4380621513
Ar      -419.2699721816       281.1654408928      -511.5481716485
Ar         0.9091974346         0.0637481573        -3.2441162577
Ar         2.6222799500        12.1194294889         6.3845395886
Ar        15.6581437605         4.9652643744        13.7261497409
Ar     52568.6229962024    235452.6722096975    209179.4616133766
Ar    -41048.0988907124   -335182.3860020210   -153378.3682324915
Ar    -11536.0845535059    101734.4550559175    -56132.8535973990
Ar       -92.8066437630      2261.0033688027      1480.0959479450
Ar      2325.2835804266      2191.8650226759       590.1201238397
Ar     -2215.9980180462     -4442.2967297820     -2056.5295231332
Ar        -1.3774299524        74.6094191513       -52.0321869461
Ar        55.1218476832        -6.9790981257        73.8558830690
Ar       -33.3558335954       -51.1395928800        -4.9911210908
Ar        -3.5451565570         4.8814445884         7.6833870900
Ar         3.7821738244        -0.5061498907         4.0302634061
Ar        15.1693695564        13.0465828844        -2.4698401877
Ar   -988198.1542136023   1448549.9841431270    320790.9170835932
Ar   1381474.6133859572  -2139169.5674770689    351030.5972273723
Ar   -393261.5164410743    690633.2103530306   -671809.1795092026
Ar         3.9576487357         6.3344570348         1.7848408209
Ar         0.0612706249         4.7826467939         3.8631348759
Ar         8.1168799955         1.4529647831         9.3160069766
Ar ******************** ******************** ********************
Ar ******************** ******************** ********************
Ar ******************** ******************** ********************
Ar        -6.2798083110         2.0622112694        -2.1359428456
Ar         3.2806179839         8.3719684101         0.7045432310
Ar        15.3925530300         0.8057650281        18.4581283307
Ar        -0.2906420053         6.9247093684        -0.5119045682
Ar        -2.0992076227         3.1302775183         8.6081930899
Ar        10.7389307590        -0.2581328248         7.6790456895
Ar       105.7384338890      -290.3220262787       723.4339023711
Ar       -76.2384843267       312.8293321969      -635.7604582480
Ar        -7.3008306834        -5.4635652018       -77.3850005963
Ar      -108.5517066225        12.4690475399        46.5543369305
Ar        80.8169308422       -20.4477573097       -41.5475024592
Ar        37.9137274769        25.2917322384         8.4976783034
Ar         1.5286083733         5.9139138847        10.1081189649
Ar        -0.7782109675         6.1980301700         7.8581310807
Ar         6.7209682329        13.5679384710        -1.1307140690
Ar     -1195.7551088114     -3438.2745289630     -3283.8788091924
Ar       779.7531351881      3309.0746011670      2924.5558893205
Ar       424.6431767572       139.9723639733       369.6853728625
Ar -39885934.5414734110  -9561911.5491738394   5649493.1733633727
Ar ******************** ********************  23584656.4262550659
Ar 256662961.2030424178 125628655.6503225565 -29234132.6028331220
Ar ******************** ******************** ********************
Ar ******************** ******************** ********************
Ar ******************** ******************** ********************
Ar        -3.3768281528        -4.6115370704         6.2980450296
Ar         3.4600910976         0.7735740415         0.8166092404
Ar         5.6017542174        11.8928300645        10.5254338674
Ar         3.4861574890        -0.1206389749         1.0020064148
Ar        10.7273297662        -1.3183339735         1.3766419064
Ar        -0.7209113138         5.3109744201        10.5010221047
Ar        -2.9463119022         1.9032511173        -1.1650033494
Ar         9.5719539152        10.0513727151         6.6913430124
Ar         7.6149661553         5.4170292467        10.7587696042
Ar      -964.7893286002       319.9757377434       -46.4833425351
Ar       410.0924787069        78.6744288281        35.7356157338
Ar       560.8596618848      -379.2849103368        18.5554118698
Ar        -8.6141821070        -1.1863607088        25.7481879640
Ar        14.3989572764        17.1795739664       -23.0836788734
Ar        12.7804792514        -5.4225175655        11.5077914370
Ar    207629.8095271962   1200478.4340599361    376695.3947207530
Ar    572596.7543378067   -248533.6652593756   -442384.6279597355
Ar   -780212.5012528301   -951924.1609708871     65708.2028306594
Ar         7.7637073893         9.8256571928        -8.3600429317
Ar        -3.9735401079         6.7902209827        -1.4429167234
Ar         3.3886402777         4.3555490590        21.5515431002
Ar -93960469.8578459620 532585534.5242063999 ********************
Ar ******************** ******************** ********************
Ar 241940398.5135095119 ******************** ********************
Ar        59.3452536884       180.4115305645         6.8553693988
Ar        59.7711548711      -333.3377489261      -118.2723312883
Ar      -109.1387634707       170.2039784328       122.9460910269
Ar     -2775.6206819999     -1536.3059977239     -2749.2138280206
Ar      -299.5385699067     -3392.5814559807      1659.5135187616
Ar      3090.7676706939      4947.6553286878      1103.9242677095
Ar         7.1098188690        -8.0272925666        -3.6303884105
Ar        -3.8283139009         1.5187684614        15.9632345151
Ar        12.5145566321        14.3740555709         1.5390414178
Ar        98.5618969950       104.2605786523        58.6660018755
Ar        24.9594050035       -64.6113801712        40.2422043799
Ar      -110.2399189884       -21.2423918395       -86.6801816220
Ar  -8001971.6861106800  -5649292.8638498355   6410853.6862909533
Ar   4160673.3653169670  -1440647.0127522247  -9493930.4599380642
Ar   3842069.6930652340   7087783.5256175743   3085939.1534671029
Ar ******************** ******************** ********************
Ar ******************** ******************** ********************
Ar ******************** ******************** ********************
Ar  -3007578.9765847735  -1811999.3647188358   2905490.0093454672
Ar    257574.1334798303  -2843227.4471716578    210897.3447804137
Ar   2750010.3843898559   4655239.1311473697  -3116368.7806467679
Ar       -15.1738882289       -25.1582149283       -30.9063973138
Ar        -5.8886562897        42.8582116616        28.4139229896
Ar        31.2375452568        -0.4097140087        17.9754318620
Ar     -3060.9038132686      -804.1666118149     -4528.1018995604
Ar      3200.4097924608       307.0410664070      3426.3373750591
Ar      -128.4475042204       513.4171544028      1120.3550191322
Ar         3.8828398780        10.8888220846         8.1938346864
Ar         3.5372171024         3.6868515341         6.7568620472
Ar         5.4315209210         3.4503154114         4.4277964475
Ar ******************** ******************** ********************
Ar ******************** ******************** ********************
Ar ******************** ******************** ********************
Ar        25.5145638209        -7.6225595282        33.0757584387
Ar        17.7956677723        61.8477796850        32.0597167552
Ar       -35.2662263286       -48.7890257748       -47.8486342400
Ar         1.5538045438        15.9051271038        -3.2781327166
Ar        -2.1111835773         8.2372528745         2.1611110840
Ar        13.4562036734        -3.9784966930         9.4609146755
Ar       -14.5188031367        50.4122516981         7.1084352236
Ar        33.1433111564        -8.0647767934        -1.1221204871
Ar         4.3653829095       -25.2945745376         8.1412888702
Ar      2585.3419960000      2177.4613749418     10305.7722675846
Ar     -1103.3403020695      2026.6501975118     -5223.5048174840
Ar     -1465.2221934189     -4187.5925274989     -5066.9291357607
Ar         8.1163067652        -1.6093130352         0.7838079618
Ar        -2.4523254017        -3.6615773438        -4.7869759973
Ar         4.4482575178        17.5669092077        18.9338087896
Ar        39.1915206399       -13.6211435387         4.7232117829
Ar       -28.5660919168        -6.1772606072        29.6845692802
Ar        -2.2791585799        36.0938078706       -19.8017505729
Ar ******************** ******************** ********************
Ar ******************** ******************** ********************
Ar ******************** ******************** ********************
Ar   1481044.0561610479  -2280151.1462376663   1196987.2999189436
Ar  -5207985.0048088413   1805752.2665666416    504342.5644125394
Ar   3726960.5806281953    474420.3845281731  -1701314.5326718478
Ar       -48.7517204037        57.5697167275      -110.0980686931
Ar        15.4083275857       -23.5346779510        87.5655133753
Ar        53.8184928207       -23.9673761162        33.5158599439
Ar        -1.9115046813         0.1599213987         2.3415914350
Ar         6.9754413046         1.0560320591         2.2760288353
Ar         5.9022895622        10.7253094885         2.8596190260
Ar         8.6228452409         9.0221961940        11.8685050899
Ar        -2.8967112916         8.1788807937        -1.9140350032
Ar         3.3891879982         0.1804167157         7.6388894397
Ar         1.1752360529         8.7714249086         1.5820221028
Ar        12.7660163704        -7.1758580814        13.2580602885
Ar         3.9609883787         6.1291179811         2.0228204918
Ar        11.0338393432         7.6109372728         6.2427519254
Ar         0.2919021808         1.0330209276         8.5012180184
Ar        12.0570952261        13.3377376709        -5.3324542325
Ar        13.7007468944        -2.5378189396        13.2809560732
Ar        14.7026357728        57.2818834977       -91.9309319565
Ar       -10.9324214131       -38.0595738286        95.9467636593
Ar ********************  61543816.4684766755 300805697.3227640390
Ar  82002758.1097112149   6306568.0469359979  62747109.9643899500
Ar  88187713.3174838573 -67850375.0829881430 ********************
Ar         6.7226384427         3.9889675108         7.6858529153
Ar         9.1714794801         5.5920127723         9.2969362845
Ar         7.6564747731         6.5155655158         3.3642710711
Ar       132.5980374745       290.2293715813      -485.4746222296
Ar       372.7617463162       -37.6766257155       225.7675339068
Ar      -481.9760132231      -247.6644098288       273.3233436890
Ar        -0.1775374837         2.5936105574        -0.2516396322
Ar        12.0177038119         9.3231827025         2.4994602593
Ar         3.3936036856         5.2590287297        15.3952129029
Ar      -250.7483835864      -144.1071842642      -281.3525130658
Ar       251.4675381081      -168.1267777464       194.6551044312
Ar        11.5379878873       323.6585068484        98.1201181782
Ar       -33.7329960049       104.1915802908        31.1337044811
Ar       173.8563398032     -1176.7634434883       357.8526554624
Ar      -128.6963077954      1086.8809374609      -377.2173083829
Ar         3.2249673232         7.7854816751         7.7713126859
Ar         9.0081815685        -0.0243593961         1.8380335236
Ar         2.0114051746         8.0570745792         7.8410369204
Ar         0.1116864502         0.6032993483         8.9604137239
Ar         8.8272257101         9.3809852856         7.2320751963
Ar         9.1877450292         8.3104426323         0.8630509624
Ar        -6.1624512623        -7.2028958782        12.0523501725
Ar        13.2965761159        13.1180218124         7.8955584253
Ar        12.2545259135         5.6855870870        -5.9001772796
Ar ******************** ******************** ********************
Ar ******************** ******************** ********************
Ar ******************** ******************** ********************
Ar    -52308.7528978175   -181114.3879479461    258819.7728756796
Ar    -14102.4624049068     -1177.3279619671    125923.7498982589
Ar     66428.6203377551    182301.1412907547   -384729.0796123303
Ar       -11.2087938582       -54.4337296968       -20.9992804717
Ar       113.6992462312        39.5340728815        91.3629190164
Ar       -93.5518443067        25.1497066042       -55.9149869845
Ar        27.7731720570        23.6150624838        -3.3307502826
Ar       -10.8330624290       -27.4785714032         7.0117971956
Ar         3.7101633380        11.6010683573        13.1597976091
Ar        35.7124911249       -17.2231038437       362.3833632470
Ar        -8.5997535164        10.5353676056       -99.4324789982
Ar       -14.9327684603        23.2873090752      -260.2198045660
Ar     -3028.6873214124      1495.2995948982     -1616.1114356510
Ar      3330.5884971309      -936.8177419477      1726.5028981929
Ar      -289.1085310289      -538.6750345681      -103.3042658554
Ar        16.6374152822       -54.3216155907       -33.9287663983
Ar       -28.2912533065        82.0675048924         1.7622628929
Ar        20.6437441769       -14.1207715830        48.4715662377
Ar    151669.1513605185     79814.2520733180    152341.0172971553
Ar    -45635.8608804153     38962.7845964589    -34116.3380341036
Ar   -106023.7989510758   -118757.2001724183   -118213.5841761505
Ar      -842.5668627128      2345.2047654325      -668.8316895052
Ar        82.3005963660      -768.6760381458        14.3176056835
Ar       773.9982465202     -1566.7454382442       659.1172760979
Ar        -3.1420133348       -32.3789474021       -15.4347682293
Ar        28.0975325656        40.9831744510        11.6074603596
Ar        -5.1851636176         5.4381448545        21.9567545141
Ar        36.8921479457      -109.0375864776      -123.4331815041
Ar        98.5642269175       672.0632394489       452.7386773827
Ar      -119.0980130350      -559.1543543140      -314.3320171431
Ar        -2.9443121177         2.4711706836        -1.9307603490
Ar        11.8568304238        11.3926067432         5.2122085125
Ar         4.9962482143         4.8056847794        13.3384475127
Ar ******************** ******************** ********************
Ar ******************** ******************** ********************
Ar ******************** ******************** ********************
Ar         7.8526760074         1.5356949390        -1.8380898445
Ar        -1.7883606169         5.1483372725         2.8489591430
Ar         7.3829675589         5.7749248209        13.1337966401
Ar      -264.0932154783       100.7949137746       251.8668111684
Ar       199.4609143794      -119.0410164459      -121.8833458597
Ar        86.2712328976        24.4486409307      -117.7656916181
Ar        -3.8026020400        -3.7477491596         7.1080742608
Ar         3.4948323578         2.4634751392        -3.1839626037
Ar        10.4850726289         5.5252686500         2.7270898204
Ar        12.1955324601        -2.4001538720        12.7082105092
Ar        -6.6304321576        13.1680063212        -7.0379890503
Ar         3.8536225414         3.9864500572         2.1747489460
Ar     24595.9732635496     -2871.4903967769     24635.0726873583
Ar     10728.6318721700   -103535.0335812027     21950.5649324845
Ar    -35313.9167198198    106411.4215637536    -46569.5452371740
Ar         5.0652011758         6.8922975483         1.9699490290
Ar         4.5684944729         6.8713084363         2.6973442612
Ar         4.5561335791         6.1925622981         2.1357280156
Ar       -32.3339146698        49.0829323264        15.1315624297
Ar        68.5631088428        11.8464300113       -46.2654772881
Ar       -29.5515071251       -36.4885993159        47.5046959926
Ar     11288.3396343869     -8230.5904718226      1513.0593941273
Ar     -2532.4465223106      2533.3834675502      1168.4848818790
Ar     -8747.3860936214      5708.6610471274     -2667.5599238629
Ar         5.5778623475        22.8359794296        -5.4295392638
Ar         4.1243809382         3.6611245710         3.9424985440
Ar         0.7648957735       -13.8437039913        17.7758805965
Ar     35811.5117807012    -56515.4412737795      3683.7157913760
Ar    -14395.5199369790     16987.4146533998    -11237.0835542900
Ar    -21411.3711797871     39542.2749713405      7558.6700954404
Ar         0.8587951693         2.7481203054        -1.4469218231
Ar        10.1475878441        11.3581728481         8.4051538929
Ar         1.2880266724        11.2853325810        -1.6458950405
Ar      -306.9779119445      -207.2633050032      -366.3801999123
Ar       917.9271385514       755.2006263426      1108.6195402166
Ar      -599.7890464568      -535.8989062758      -725.7351287844
Ar         6.7120248552         0.4309617533         4.5217903587
Ar        -1.7522833234         0.8151790659         8.3785598965
Ar         6.0570427751        10.0507147068        -1.8961630402
Ar         9.2698221538         9.1570153643         3.6238005022
Ar         7.9126338354        -0.3097778119         5.1910171244
Ar         1.5364401095        -1.9192928685        13.5759969561
Ar         1.0669374733         1.3190284394         1.0551317980
Ar         6.9390289294        12.6500024871        18.5380171583
Ar         7.7573581259        -3.5608065935        -2.4918086572
Ar       -11.5313009293        51.5094658148        -1.7781581490
Ar        17.7164193443       -23.2145750509        -5.1598183698
Ar        10.2173403850       -18.5352175334        18.9672332303
Ar ******************** ******************** ********************
Ar ******************** ******************** ********************
Ar ******************** ******************** ********************
Ar    -28148.3087467164     43628.5224742268    -38277.1529872414
Ar     81655.9426059448   -111235.3626781765     99626.1389292875
Ar    -53494.4155389737     67617.7344031295    -61339.1237863168
Ar ******************** ******************** ********************
Ar ******************** ******************** ********************
Ar ******************** ******************** ********************
Ar        10.4638409767        10.5741613750        -1.1266855256
Ar         0.5906681794         0.7036477882         7.8766316420
Ar         0.8174260307         0.7340178125        -0.5530031071
Ar        24.8071929919       -11.7786900298        57.1812670285
Ar       -36.1190947476       -16.3797315486         3.6299723768
Ar        19.9326368405        38.1527714082       -47.4000549103
Ar         7.7379126652         3.4526675080         1.7630890461
Ar        -1.1313200478         3.2231222449        11.7881762021
Ar        -1.0304264785         4.0351477471         2.1810612649
Ar         6.9857684983        12.6796105517         7.4428983351
Ar         9.9208398157         3.5619654457         7.9305460801
Ar        -2.7422811335         2.9485297152        -3.1874422723
Ar   1330353.5907104248  13408718.4780137055 -13258406.3113046587
Ar   2017652.9450137857 -13626613.5920870323  13151085.8261357602
Ar  -3347916.5829587206    217929.4592261574    107337.5162974598
Ar   5650644.7619534852   2749280.4154972155  26215132.3768287413
Ar  -7145605.4301273599 -25201822.3422740623 -46656157.9367203191
Ar   1494964.7926255707  22452555.4307868406  20441027.3623436689
Ar        14.7374049445         5.3678606190        11.8555851043
Ar        -2.4509272581         9.0392032688         6.0094799815
Ar        -1.2000405590         0.1321238653         3.7909617232
Ar       -52.8513075801       -39.6859405970       139.0472966520
Ar       102.4938306833       116.7984254384       -64.1956166826
Ar       -40.2274049701       -59.9048101533       -55.3276193253
Ar      4065.9738873125      2966.2607134573     16125.0692669535
Ar    -20503.0067354984    -24649.2812098511     16584.1227823609
Ar     15715.4844956631     21542.9573240045    -32069.1376980115
Ar      5323.8945401406     10559.8238047294    -13250.4111928576
Ar     16187.5500829719      1930.7511829646     13818.2953033275
Ar    -21502.3005746141    -12469.8396439738      -555.7597043785
Ar        -2.9432300878         9.2336105003         5.1460783589
Ar        -1.3990941271        10.4840289576         5.3902136537
Ar         7.9719395429         0.5738743701         4.7804815741
Ar      1668.9543122120      2334.2122465216      1148.0405151870
Ar     -4159.5000948753     -2844.4726077706     -3280.8948101810
Ar      2501.6421559151       518.1821063683      2142.5754897945
Ar ******************** ******************** ********************
Ar ******************** ******************** ********************
Ar ******************** ******************** ********************
Ar        70.4626914373        -5.3467532891        56.0023337088
Ar       -35.6086476098        40.2622089965        20.5086011274
Ar       -19.2706182233       -15.6876439416       -67.7204480678
Ar        -0.5196514149         2.1146091127        -0.2273517573
Ar         2.6429110712        12.6160268291         7.7384514196
Ar         6.5365212048        -0.2391655269         0.6459927614
Ar    326583.9453457354   -809753.7257087682    -80678.7071121373
Ar   -282487.8286380512    685383.4622697548    110105.6149425213
Ar    -44089.2540957953    124380.2040254402    -29421.4878474037
Ar         2.4480606024        21.3499541010        11.3534975105
Ar         9.5019870484        -7.8733916671        -6.1218535040
Ar         8.2438678313         7.1998919517        10.3940797075
         600

Ar        12.9294359006       -12.1512847841        25.7583050415
Ar        -0.0648826649       -40.3782230767        47.4149649672
Ar        -2.8660625557        63.7320247322       -56.3687608438
Ar    327669.7236637288    160997.7913098042    314234.8852562711
Ar     71000.2161488259   -107351.6844992800    -28392.3665079428
Ar   -544140.9477452263     40179.2327846544    191573.9822491555
Ar       -10.4727108967       -17.9289032605         8.2141873955
Ar         4.4916983169         5.1792610937         1.9485454622
Ar        16.1231099759        25.2727553629        -0.7309199893
Ar     -2341.4830417336      1424.7381019203      7514.3304609134
Ar      1977.5543186117      2515.1348089224     -7779.3267547247
Ar       382.7577841449     -3919.9576444839       276.7797883013
Ar       636.1324649984     -2205.1845271542     -3644.7665747128
Ar       248.7864930589      1605.1331775640     -2886.6713207126
Ar      -866.9167676982       614.8748711290      6538.2261878626
Ar    -71448.0980661803    -18550.9219707549     83922.9749915551
Ar    354940.7006739367    -47946.1348280649    112833.4693503221
Ar   -283468.7917505598     66518.6600057947   -196749.1163074353
Ar    -69555.5656311130    -52197.5931369324   -175456.4087980584
Ar    107436.2038044630    119948.0394066228    -16910.4446963129
Ar    -37866.8328745703    -67744.3896467142    192373.7607974069
Ar     -1481.1889426502       609.6088621990     -1925.1132787337
Ar      2161.5541272062     -3676.6465866474      5519.2627515169
Ar      -671.6887234621      3075.2614416240     -3582.0669488976
Ar         2.1577278139         9.0650738873        10.4791988231
Ar         7.4861876843        -0.8244373583         0.2238429806
Ar         4.4714663226         5.9016812655         1.6198482608
Ar     -2524.1860272685     -7660.8538991966     -4279.8780938390
Ar     27427.7493571631     -2915.1466981334    -21223.1436802701
Ar    -24888.8623858628     10591.7424178988     25521.4820338048
Ar  17167494.2844396420  11844436.4025742114  -8534555.4883293938
Ar -10861397.6062595230  -4131286.6923970729   1982117.0629809597
Ar  -6306086.0700819390  -7713134.5484253373   6552450.6578342076
Ar      -553.5411982792      -174.3244656064       247.3666691312
Ar       702.8132596904         6.7238795792      -703.2800075433
Ar      -133.1759081937       186.6812064668       480.3165221412
Ar         6.6680020384         5.3501685789         6.8935755603
Ar        -2.1631166979         5.7322605941         7.5480609626
Ar         6.5234262062        -3.0841073682        -2.1886128748
Ar     -1057.1459139824     -1053.1157945081       619.9957451894
Ar       249.4677763530       287.1562736370      -254.9237389990
Ar       811.3432325328       781.1940595780      -353.3821296451
Ar ******************** ******************** ********************
Ar ******************** ******************** ********************
Ar ******************** ******************** ********************
Ar         5.1451953347         4.2607648319        10.6958500433
Ar         6.0768098570        -1.6988717420         1.7586436004
Ar         4.2224066128         9.5732966675         0.7599524001
Ar        23.1113703644       -12.5734439288        11.8125009568
Ar        -6.4722023193         3.4969417723         2.7131570251
Ar        -7.1003096731        12.4820241564         1.4318900728
Ar     -3361.8872840124      1076.0852287734     -1039.6058967508
Ar      4471.1154118987     -1333.6537857813      2083.5797915268
Ar     -1093.3508493704       275.3212962360     -1031.8983619913
Ar       -14.6850305528       -20.7199172587       107.3967621923
Ar        14.5695824068        59.7143683166       -45.9663599330
Ar        12.1616314378       -21.2198179624       -40.2436397334
Ar         6.8301254181         6.0319089899         6.8678211486
Ar        30.1874333815         2.4328511345        11.8079725291
Ar       -24.5242084671         6.4680108586        -5.2536204249
Ar       106.3267816857        30.4361177663        34.2222823955
Ar       161.3769340117      -280.2926748928        81.5457656078
Ar      -251.1232000712       263.2643288721       -98.7507893889
Ar        28.3033623835        85.2933947525        -5.1013434173
Ar       -10.5526526516       -58.5021694070         8.8655981984
Ar        -1.2857395915       -10.6288103514         7.5522539300
Ar       -20.9457303503       -80.2279599929       -32.6734783702
Ar       -23.7308235136        84.5502827949       -25.4627457910
Ar        51.9749132521        11.1163933785        69.3856410483
Ar ******************** ******************** ********************
Ar ******************** 714063995.7252537012 ********************
Ar 385038042.0094265342 ******************** ********************
Ar         7.0427428510         0.5380035528         2.1104004543
Ar         3.7912842394         4.0319129666         2.8514425941
Ar         4.6879253544         9.3411654751         8.0101706433
Ar         6.5244585668         2.2353806712        10.4123490956
Ar         6.6862797777        11.7325889829         0.2933684554
Ar        -1.9525451655         2.5081055233        10.1750198351
Ar       607.6431752794      2415.5589627348      -263.9508515101
Ar        54.3846679983      2013.7432400646       923.2471345158
Ar      -647.3929213329     -4419.9215254792      -640.5545966914
Ar    -12908.0995607783     -9975.0819533430     35178.8769438797
Ar     20685.4298169469     19194.9682608056    -17539.9165105150
Ar     -7760.2869565941     -9204.0224593378    -17627.0226901237
Ar         7.1729964048         0.6242433966        -1.0362514575
Ar         0.0157556027        -0.0720011916         1.4620675902
Ar         7.7657267012        13.7091381181         8.8546537644
Ar        -7.2929404003        21.3149921736        14.7404842578
Ar        18.8000743263        -7.4534737773        -9.6240206842
Ar         7.9631612399         2.5998260699         2.9065371496
Ar    515432.5489819920    298713.1594305739    351889.5580992200
Ar   -229249.0149967969   -133053.3531870406   -153247.7125606157
Ar   -286167.6097327052   -165656.5215504231   -198623.2152661489
Ar ******************** ******************** ********************
Ar ******************** ******************** ********************
Ar ******************** ******************** ********************
Ar     -8708.6450223232      1150.7059894719    -12578.0819712456
Ar     14551.6791878948       -94.7390605181     25443.8211041621
Ar     -5836.5969657565     -1038.8993318348    -12849.1451203014
Ar ******************** ******************** ********************
Ar ******************** 150333518.3390347958 372155310.4703547955
Ar ******************** 266018565.5694942474 ********************
Ar      3346.2264029403      -735.0617097955      1677.0152551801
Ar     -8240.0471392017       241.1043257070     -3173.0566477366
Ar      4911.9454184457       512.6714179248      1507.6412882238
Ar        -0.6998216482         8.1557331293         5.2533973542
Ar         8.0249543472         7.1610856480         6.4757330686
Ar         7.0110479463        -1.6148953584        -3.4374927843
Ar        -0.9410844483         9.6730466641         3.7401973981
Ar         9.1318195738         8.3441323717         0.3468344286
Ar         8.2169729307        -0.6383621159         6.8943713075
Ar     -8324.5925463166     13294.7230636593    -11233.2817654160
Ar      3367.2524192981     -1289.2834039186      4155.9333648799
Ar      4982.3551344297    -11995.2537506425      7086.6427052776
Ar         4.8554719828       -34.8988765214         6.3948652705
Ar         8.7162845979         5.9077969558         8.8979720619
Ar        -1.9383273537        36.8541601232         2.3260968492
Ar      3465.5393894217     13514.8304330918    -16417.4842829407
Ar     -1963.9558507067    -13404.2640368256     14254.1415553162
Ar     -1487.2546341835       -94.6943738394      2173.4278251351
Ar        -7.4735089090        29.3961763047        13.4401868557
Ar        -7.2087047914       -18.5096947145         4.6825266279
Ar        25.4712297993        -1.3678167345         2.5256365399
Ar        11.0042281517      -808.3700256620      1705.1496203536
Ar       188.1904615645      1144.9004477228     -1549.4541506561
Ar      -187.2233222858      -330.3297978766      -132.8247333414
Ar       -26.3774016651        23.5330608687         9.5467555713
Ar         0.7205661781       -20.8815616981         7.2455270574
Ar        42.2018468419        16.8434067994        -0.2120896260
Ar     -1183.9488099733       560.7938774838      3335.1506729670
Ar     14041.5000039804      8549.1897679630      -263.9443062117
Ar    -12841.6995435876     -9092.7659361707     -3056.1561701054
Ar ******************** ******************** ********************
Ar ******************** ******************** ********************
Ar ******************** ******************** ********************
Ar ******************** ******************** ********************
Ar -29457357.5470734537 ******************** ********************
Ar ******************** ******************** ********************
Ar       -63.0837596992       -15.4266517661        14.6548673173
Ar        29.2590136839        10.8621103718        -4.3387144090
Ar        36.7749147414        18.8765317236        -5.7183848662
Ar         0.3357226359        -1.9042097584         8.7637615034
Ar        11.8630663583        13.7456597944         4.3499364917
Ar         3.3390580279         7.0742687658         6.7853469700
Ar      -323.5565716166        90.1965500979       310.2076724277
Ar      -170.0465626958       262.7590987370      1750.5260242716
Ar       510.2967098173      -334.8727996084     -2041.8457848849
Ar      -206.5127516839      -690.2924988406      -733.2170786003
Ar      -607.2182787705       441.0405180601       456.6634616570
Ar       829.5536009289       259.2417353530       290.7354776826
Ar         2.5574282753        11.6062507103         0.5615718227
Ar        -3.5032831778         1.8857278866         8.4633244400
Ar         8.1746484683        -7.3958862794         5.5921781586
Ar     13077.1286340545     -1176.4746967237     21844.1338288547
Ar     -9136.1902869730       997.8840815870    -16320.9510738869
Ar     -3922.9139761930       193.7874045867     -5510.7823445802
Ar        35.9727171978         3.2178963546        32.3399535428
Ar         0.2071985817        24.2871191537        21.1054456830
Ar       -23.1677086321       -10.9612460759       -28.8669659535
Ar       -46.1473152328        42.8143646312        35.3032393075
Ar        55.7435291861       -29.8702452337       -23.8939433285
Ar        -1.3661334253         1.1649472733        -5.7149580299
Ar      -853.3726025358      2189.9197886776      1959.9242678552
Ar       514.3597538138     -1071.7020929248      -570.0984003957
Ar       348.2846867528     -1105.0038041945     -1376.6096198501
Ar        11.4054128614       -24.9616331438        -5.9157135652
Ar       -66.8049666078       -62.9661649454       -75.3838404472
Ar        74.7158543514        94.8170231843        94.3580120678
Ar         7.4646339170         2.3721761163         6.0551711839
Ar        -1.2220252124        11.4313753873         6.6672904425
Ar         8.2843557710         2.1554463897         5.8157004792
Ar      1387.9366446841      6516.0189571089     19800.4001069954
Ar      -146.9879547118       329.6192262772     -7748.2524507975
Ar     -1231.8140588629     -6833.7098612807    -12037.8503196658
Ar        -4.5841287821        21.9545521688        78.2213021991
Ar         5.7493582132       -19.8976741021       -73.3475192619
Ar         9.1901956989         8.5168620763        19.5368698917
Ar ******************** ******************** ********************
Ar ******************** ******************** ********************
Ar ******************** ******************** ********************
Ar         4.8177806947        10.0051171140        -0.0488028929
Ar        -4.0253399926         1.5980206929        10.0722670795
Ar        12.7285061011        -2.7067892056         3.6158380059
Ar         1.2773877393        -5.3198638364         7.6429437318
Ar        31.6925841283        26.5334981627         8.3610027256
Ar       -18.3113314515        -8.2574487604         2.7048526469
Ar         3.2980946421       -16.1410349060        -2.8285645885
Ar        11.5063694473        -7.3881697726         5.3011993581
Ar         3.7493823099        33.6263547946        13.9020752900
Ar         7.3171884578         1.8016457489         7.5090136544
Ar         6.5525645146        10.6567181400         7.6122081214
Ar        -2.7214339766         2.2504519710         7.5027190003
Ar     -5678.1987643772   -197458.8585582585     90632.4569672740
Ar     -3142.0702994421    123045.4540714816    -29267.0926482375
Ar      8825.5080145459     74425.2955943368    -61355.1749269465
Ar         2.2443179497       -12.7225047332        26.6218792897
Ar       -61.2749618817        34.1001690965        82.5332654814
Ar        75.5795803982        -8.3965430081       -96.0946412763
Ar        -2.2600454102        -0.0704226276         0.8278985021
Ar        -0.5279198140         7.2881505090        -4.3398246648
Ar        14.9556451963         7.0894402923        16.0650266907
Ar       -15.1121792874       -25.1039688373        19.4762640825
Ar       -30.0714207045       -17.1765607078        26.1437236283
Ar        64.5117733319        57.1747208703       -32.2750253817
Ar         9.9973619534        20.8777437421        25.5443843236
Ar        -2.5091994394       -22.0609540413       -37.3255511993
Ar        12.2746454883        16.8620593749        24.6144700222
Ar        -8.9214853660         6.1782485460         4.0396186346
Ar        11.7599080273         1.3848667901         4.0351873342
Ar         5.5046431721         8.5983555069         1.2517817847
Ar    -39822.5494194445    387860.4221848353   -353414.9454448424
Ar    -54897.2864882805    -88733.9926498302     66894.2988461787
Ar     94730.6665523922   -299112.1913818072    286537.3549556062
Ar        20.2649974186       399.0156215619      -103.6228364992
Ar      -173.0717970921       -49.9226359039       154.0088502028
Ar       168.9381009608      -336.3760136568       -32.1832255297
Ar         1.6583979976         9.5214040544        12.4659856523
Ar        10.4569577132        -0.0185483612         2.4950859539
Ar         2.0048695112         0.2567110885         2.3755957077
Ar         5.0172721155        10.1724601817       -13.9047717391
Ar         3.9933535495        -2.6770245155        23.4398666876
Ar         2.3232038723        12.8961131658         4.1356286021
Ar        12.8260344459        12.0920536388        11.9566633634
Ar         0.0239191395         2.3073647637         6.5531753313
Ar        11.6452232830         1.2513252993        -6.5056954251
Ar     29497.9681704442    382521.5871543424     43039.5662204523
Ar   -436030.8034815688   -410532.6049085449   -281503.8107834933
Ar    406540.3232962337     28031.9701208277    238481.0116127180
Ar ******************** 875461722.9355283976 ********************
Ar ******************** 244537128.7483813763 ********************
Ar ******************** ******************** -89577328.6073938012
Ar       996.4636916766     -2564.6524696947      2974.2628885912
Ar       107.5010699774      1455.5965957570     -1057.4595772470
Ar     -1094.0620793872      1132.7365605189     -1896.3732913227
Ar        -0.8523154253        11.6510648628         4.2815577558
Ar         5.0612568647        14.2103559673        -8.9085979599
Ar         8.0798605595       -13.9630985666        11.5413695309
Ar    264634.6203324808     74128.0557875767    -38890.8696544260
Ar    141912.3731069139   -125549.7249273356   -126998.3015364566
Ar   -406533.5532585370     51435.4181459608    165908.1408258294
Ar         7.6688889326        -3.4418957548        -4.1811555247
Ar         5.4963050567         6.0347462930        12.3205819772
Ar         1.1457883784         8.8034549447        -0.3069080619
Ar         3.9753357468         3.2083497492         4.3970865308
Ar        -1.6220192321         2.8720405985         3.2915741775
Ar         6.2187195168        11.2278249211        10.5069237043
Ar         8.3595191816         0.6474433989         7.3112284616
Ar         2.5721995197        -8.3843000331         3.3156761787
Ar         0.2087460367        21.4926870654         3.6873174575
Ar       -91.2155455855        64.7314074922      -244.2893362391
Ar        24.7940423271       -90.6279114624       175.2182605815
Ar        82.5810830493        33.2703113597        81.0782885776
Ar        91.5445894181        46.6632487661        27.1895719703
Ar        68.3665363339        39.6808336512       -20.8460461548
Ar      -134.1429862349       -73.3787414015         2.0055202985
Ar     -4938.8968396572     -2278.0187436666      6019.7172217765
Ar      3565.3504885529      1206.7556306695     -6982.1295479131
Ar      1392.0033039680      1081.8485506752       978.5757746783
Ar ******************** ******************** ********************
Ar ******************** ******************** ********************
Ar ******************** ******************** ********************
Ar         8.1294613750         5.6052962416        -7.4679121820
Ar         3.0547913432        10.6326923756         6.1924856743
Ar         3.9022401408         0.2731335801         8.4833311774
Ar       -47.8155845562       -30.7350900712        49.1312947984
Ar        58.7522422903        53.2794463697         1.1255375363
Ar         0.5821689978       -14.1259409765       -26.5392258523
Ar       183.4577831057        42.4315560655     -1054.5055004446
Ar      -322.5288204765       441.0594139728       566.5242370670
Ar       154.9226750452      -470.4060566323       511.9330293555
Ar        37.4611556438       -58.1861022780       -26.4020091251
Ar       -23.7805329749        71.8428018701        25.4268685270
Ar        -2.6058810581         6.6263937331        10.7497686473
Ar    -13298.3570035975    -13384.7661975789     -5370.8075540259
Ar       -73.8582438646      9889.8021028620      2839.2616828155
Ar     11782.8885621022      5627.1928242341      1124.6166088698
Ar        10.1143823269         5.6213804581         9.4506443260
Ar        11.0599194311         6.8477186092        -2.1621646880
Ar        -0.6977280671         4.3417815867         9.4423058410
Ar   -100752.3700509990   -104556.1629270733    -76750.1733308272
Ar    325974.0041497958    105194.5903857689    -13154.8278371595
Ar   -210524.2165629173    -65197.6545495300     12602.2590283734
Ar        -0.4230772154         6.7757382061        13.2624234746
Ar         8.8954298673         6.0947633818         4.5397065442
Ar         9.2197689579         6.0150710543         3.7244058663
Ar         3.5818385475        32.7034005579       -33.2949992393
Ar        59.8065696308       -76.7575705342        49.1439687624
Ar       -46.8438799942        55.7176894131         0.5998119395
Ar         8.6200130750         9.7973177140         1.7947890751
Ar        -1.5056194483         0.6734006193        10.8817305011
Ar        -1.2841911549         0.3789023658         2.4015744175
Ar         5.0122898219        10.2794713842         6.2708478485
Ar         7.1628488222        -4.2033652236         5.9349635046
Ar         4.9985227959         4.2715337233         7.1947353927
Ar        14.6527594504        49.8621419045        80.3415348935
Ar        21.9509884074        56.3758780644         5.4912821383
Ar       -30.8697372436       -95.7561542666       -75.9310598243
Ar        10.0200423459        20.5409493573         5.6718859440
Ar         1.6519455960         1.1739980646        15.4610429005
Ar         5.2697581275        -7.0860072815        -7.3150359162
Ar         3.1639320866         7.6345942358         0.6885218449
Ar        16.0467504793         0.2102729296         4.4270660407
Ar        -4.8945205515         2.6213085706         5.4035413606
Ar    -38710.6333494598     58371.9631229924     58444.0900889748
Ar     30453.1827736138    -26190.9104686962     -6571.6591343875
Ar      8271.6147119642    -32166.7448380890    -51852.4585863995
Ar         6.0871680061         6.7441849154         0.2629078459
Ar        -4.8473810083         5.9553207607         7.7115553836
Ar         4.6944778070         6.9129094424         7.0376513036
Ar ******************** ******************** ********************
Ar ******************** ******************** ********************
Ar ******************** ******************** ********************
Ar         6.9772775539         8.4565245229         7.0465980781
Ar         7.4346600239         6.7751070769         5.7162078903
Ar         9.3427259035        -2.9614808661        -2.2645759782
Ar         3.7881290874        -2.3654602055        14.6057356790
Ar         1.2905019545         8.9078064881        -0.8648563920
Ar        13.1722846713         7.3638417442         0.1122156898
Ar        -6.8779002127       -15.6319181478        -2.4980902684
Ar         2.9723248040        35.5136400429        10.1530132818
Ar        21.0894971548        -0.5329432597        14.0352222886
Ar -16335442.9248813596   6823472.2079129657  22899209.4685865156
Ar  23040994.8735237159  -5906287.7471914925 -31405875.8900029659
Ar  -6705532.1800310016   -917166.7488464415   8506672.5248373318
Ar  -2408908.4607368652     58829.4616897972    -56160.8447748774
Ar   -762976.9375718788     94272.0320047917    363198.0869238761
Ar   3171904.3910760321   -153089.8007767004   -307019.7869096617
Ar        10.8614715592         0.8528017658         9.4909874241
Ar         7.7673486308        10.0181678155         0.2214497002
Ar         0.0465823771         1.1870344079        10.2816916058
Ar    -38286.0254474638     46517.0311310941      7784.7862708364
Ar     31692.1395093832    -33361.3691375128     -5296.6435112857
Ar      6608.9774745885    -13146.9177586225     -2480.0332747075
Ar -25461040.6570030488 -40794255.9572212100 -16663242.6653700173
Ar  17051177.7576812580 -45523599.3669872507  28479912.7043720856
Ar   8409908.5433199927  86317843.9623928666 -11816666.9386533871
Ar        -1.2663703887        15.2088714018         8.0099013204
Ar        23.8301016396        -1.0621968208        -9.4111888891
Ar        -2.8034699445        11.3054250278        10.1920464639
Ar ******************** ******************** 204380055.4707216322
Ar ********************  46789936.7246147394 -45756346.0676632896
Ar ******************** 349069274.8962631226 ********************
Ar   1112456.4206964038   -322068.5848090833   2082537.3381851255
Ar   -211995.8956668696    864228.6703380037   -863996.9526347937
Ar   -900448.4490757310   -542149.3514371999  -1218515.8181460865
Ar     16259.8511544968     10695.0032342140      5796.3669413525
Ar    -28374.4142423114     11928.4073720294    -66759.7801725402
Ar     12125.1799310700    -22608.0387579285     60982.9988380181
Ar ******************** ******************** ********************
Ar ******************** ******************** ********************
Ar ******************** ******************** ********************
Ar         5.6914145533         5.0218062521         3.1558198758
Ar        -3.2001272696         6.2501454448         6.6588410975
Ar         0.8003704140        -5.3911639972         3.1505276702
Ar        29.4111931868        15.4231827264        47.2110485948
Ar         5.6692392667         5.3448102478       -63.5627883380
Ar       -19.2791119822       -10.0455392748        26.0892681284
Ar      -129.3448227377        69.1867576596      -112.4899148501
Ar       -79.3522339840        51.0057267201       -73.6687653201
Ar       222.2086539367      -107.6644207638       205.6100171750
Ar    -32391.1518127162     33359.6169526613     40349.0956419783
Ar     44336.2379077922     15643.6621148916    -20190.3696731656
Ar    -11918.9232403830    -48992.7103050034    -20147.9868638009
Ar       137.1322041612      -169.4727463404       160.9579074832
Ar       -91.0937225845       161.3053597809      -126.7110544266
Ar       -26.5466078191        27.9538081015       -24.6205924643
Ar       -12.3678221057        -6.0782059597        21.9578563565
Ar         4.9524463620        11.3717087827        -8.2366065144
Ar        17.1859499835         8.5092550663         7.9562583193
Ar  -7898788.9657932259  -3911569.4736990603 -22352573.0908711329
Ar -23184158.4679261856  -9204525.6493000835   5917900.0539800040
Ar  31082960.0195140876  13116118.6106598489  16434689.4681620747
Ar        -3.7736851856        16.6838715694        15.5570537814
Ar         6.2418486835         8.2717200659         3.6858542637
Ar         5.4858745247       -14.1902840496        -9.5523006128
Ar         0.4255874664         1.4393842988        11.0218910124
Ar        17.9994196417        21.8513631687       -47.2280218949
Ar        -0.1396493745        -4.2301588744        49.9851046686
Ar       159.2275663675       781.4933211680       883.8407671025
Ar      1354.3872910872       112.2147569161       668.4660790695
Ar     -1504.7896750594      -878.8668325655     -1532.9406042463
Ar        14.7490629552        15.8011406114         2.5935329576
Ar         8.6019032058         7.4123361910        -0.2149030156
Ar        -3.3199443085        -1.1970048687        19.4692664497
Ar        12.1706509909        -7.5758294827        13.7351575743
Ar        15.5342059486        31.6382854054       -11.2937403198
Ar        -3.9724566944       -16.0699830602         9.8932495782
Ar        44.8313301003        26.6016230498        21.2225036641
Ar        45.1129420029       201.9505987242       295.2400885224
Ar       -78.2093301043      -211.4578865250      -305.9005714703
Ar        16.0095392727         7.0137597408         7.3965497668
Ar        -5.3916327662        20.2080384946         7.8673287345
Ar        14.3104003007       -15.7617224330        -8.1203880830
Ar         3.0600589865         4.0364615560         9.4978191002
Ar        22.0874730358       -66.6221320255       -36.3416630550
Ar       -14.1519114697        73.7396936541        33.1021949029
Ar         7.4319026540         4.9287126105         4.3176280389
Ar         5.7093785778        -0.3326131100         7.6687057489
Ar         3.8497727361        13.8923255381        10.6661484117
Ar         4.2533459342        12.2262541329        17.5751069219
Ar        22.2277617780         9.8810696963         8.0832043627
Ar        -4.0192904985       -14.0357406679       -17.6769319222
Ar        12.4910417410        10.4797096486        10.4192562330
Ar        10.1680168199         3.2228471637         9.0012628772
Ar         0.8510987664        10.7108630588         1.5373390338
Ar     13501.6956778021     -1797.0565452391     -2723.0681847990
Ar     -2317.7380751758      2669.8273472312      5359.0160645024
Ar    -11172.6928354831      -849.0685699276     -2632.0182332561
Ar     -1088.6530766472      7067.3225939404      5724.3759729523
Ar        95.1410805048     29505.7284121317      4559.3116850406
Ar      1009.7841049299    -36559.3113167424    -10273.5312729698
Ar    267677.4091890873   -144818.5504714092     16044.2603965275
Ar  -1080523.1874524406    769661.2594749203    -65291.9310518794
Ar    812857.9262596339   -624820.6849545004     49255.3763041283
Ar        -0.9926899698        15.1152486852        -1.4953535424
Ar         5.5675092167        13.6639581222         7.6487234585
Ar         6.9163697907       -11.3379917374        10.5396128566
Ar         0.7103661041        14.9783845412         0.5116080940
Ar       -93.6613338355        70.8155332646        -0.8667915687
Ar       110.3409918956       -74.6915297936        10.7557040911
Ar         4.2575997193         4.6200568604         3.5676918213
Ar         3.6281611512         4.0312920472         3.3848667948
Ar         3.4942398279         4.6404596750         4.0071543478
Ar ******************** ******************** ********************
Ar ******************** ******************** ********************
Ar ******************** ******************** ********************
Ar     -2866.8592560131      5085.4143343402     -5697.4469731862
Ar      3646.9611714487     -3524.2855288779      3192.8774998479
Ar      -759.2292273827     -1554.1164402043      2516.9460584590
Ar        10.5042816636       -23.5636671417        51.5683001629
Ar        14.4331089014        53.1290129461       -39.7498421495
Ar        -7.1941296431       -11.5912747183         8.2862266931
Ar        18.5575579280         4.3884128951        -2.2705535120
Ar       -24.0525487386        23.2689587146         0.8620364945
Ar        24.8943123488       -11.2906517115         3.3771201640
Ar      4012.1148924689     58524.4271661366     31130.0479958362
Ar    -31664.1602573817    298160.2109395606    178843.5532166686
Ar     27671.9301024709   -356677.6602323570   -209956.0146920413
Ar       -19.6292633837        -1.6432439402         7.3282930394
Ar        -4.0399168714         6.7627951001        16.1823161471
Ar        41.4043467962         9.6803889630        -9.7029587851
Ar      1212.1475401950      -453.1208884797      -519.2917098898
Ar       673.8710985782      -149.9068249969      -367.1108387287
Ar     -1872.0451617948       606.5163724154       899.0442757204
Ar     -2145.4710401776    -17671.4202597258      2240.1100811522
Ar      2460.2243093656     17241.3005127985     11810.3040448985
Ar      -300.8062824347       440.9455977852    -14041.4532671838
Ar        19.2121173325        62.0644457942       -25.6808258594
Ar       306.8772057666        51.9941752796       249.2531832502
Ar      -321.2211973028       -96.4393427065      -208.6135831972
Ar        -8.5268070540        10.1530623927        -3.4964424558
Ar        16.5466780749         7.3034727216        10.0241491816
Ar         3.6492247178        -3.6073608423        10.8377233990
Ar      1119.7526778340      -424.5134955444     -1149.9434598065
Ar      -938.6825280878       354.4782317113       999.8765263070
Ar      -172.9882141299        84.8571252745       162.0114293510
Ar        18.3147469361        11.9807099214         8.6532243801
Ar        -3.6018544497        -2.8418980432         2.9565864988
Ar         6.8295927326         4.1555845827         4.7587083093
Ar    -46457.2302670120    -16710.8157722177     17964.6425098758
Ar     48088.0779472018     53638.5775959047     -3151.5798364576
Ar     -1617.2285405811    -36920.2476397814    -14793.5890439480
Ar         3.0223806270         8.0439949015         7.6289579048
Ar        -2.9413530084         9.1293635356         4.3466218893
Ar         9.2618716559         0.3783834329         1.5267254358
Ar     34501.5381138084   -333244.4165983530   -527519.1898720728
Ar    302416.4302762279  -2279717.5546088666   6375936.8714790102
Ar   -336907.4947745680   2612976.8020568481  -5848405.0071622422
Ar         4.3583866251        -3.5890134653       -11.6023302593
Ar         2.0264036254        20.1558025601        22.9695157917
Ar         2.4438209348        -6.3801163990         1.7272568323
Ar         2.8456467937        -0.7871318061         7.0078349459
Ar         9.1079264558         1.2698211543         7.0633354792
Ar        -4.4882541502        12.2206411264         3.2231175566
Ar         5.1283971046         7.3410544990         6.9854288887
Ar         0.2717726660         5.8997374954         3.7457949863
Ar        11.0484006362         3.9104096554         2.4611883131
Ar     -4402.1201649224      7211.4527519744    -44762.5260738452
Ar     19200.4618013648      4169.8861299529     36671.0105101398
Ar    -14779.1020198869    -11362.8561820069      8101.1901761325
Ar       -60.4907729462        54.1885464287        58.7981659790
Ar        -7.4856511697        44.3009557997       -64.2385039063
Ar        84.7445966582       -85.7712680529        29.7864891806
Ar         5.7380097468         3.6710648387        -1.4420596386
Ar         2.6183506691        13.5038703922         8.8915026201
Ar         5.5760152861         4.0174162346         3.3817157083
Ar         2.4406941007       -19.2928426484        17.6895589567
Ar        13.6068033235         5.3922869508         5.3581672927
Ar         4.9722827237        27.6929661741        -6.9228359529
Ar       119.4377589411       358.4390505234       510.5142365322
Ar      -788.7953084829       274.9558721380      -894.2091732039
Ar       684.1295335960      -616.8115528948       395.0599087474
Ar         3.2713184481         9.7546139476         5.8133073489
Ar         9.1524876323        -7.7392130636        -9.9332363908
Ar         2.6104418895        15.0159380737        10.0578844526
Ar      3319.5024880409     -2794.6241536532      3290.9224651522
Ar     -4935.1311578454     16219.0891850503    -14064.0291211150
Ar      1631.5346882669    -13403.6955758178     10786.6866856967
Ar   -196300.4352861671   -242999.6787502746   -153592.9855680990
Ar    446905.3150324475   -134554.1465506629   -435676.0474191133
Ar   -250593.1768738994    377563.0479296407    589284.0539309044
Ar       -90.7368616972        95.6070644186       -42.7113579790
Ar        44.6053505972       -11.9245444188       -17.0685064553
Ar        61.6053221342       -59.6059326015        63.8801448555
Ar        -2.9414351537         6.6876085462         4.0592508039
Ar         2.9557429028         4.5815412235         2.9458324407
Ar        10.2792665408         5.2285871243         4.0036227412
Ar ******************** ******************** ********************
Ar ******************** ******************** 976046278.9483455420
Ar 188950120.8687963486 ******************** ********************
Ar ******************** ******************** ********************
Ar ******************** ******************** ********************
Ar ******************** ******************** ********************
Ar         4.2264357676         8.5755474993         4.8040618858
Ar         3.3588110239         8.5137613958         2.4865504823
Ar         2.1771585701         6.1002353952         5.3923139038
Ar  -7163314.3355869865   6664575.3085625721  -5177375.0194957107
Ar   8529855.3319356889  -4657038.8808793379   6574717.2290570848
Ar  -1366524.1746489354  -2007522.4201924819  -1397332.7813214206
Ar        11.6428329737        -2.7693269303         9.5958112220
Ar        -4.6756116880         2.6461122365        -0.0243844195
Ar         5.6815543665        11.9355545947         2.7557930030
Ar         4.5119861153         2.6389953903        11.7392198981
Ar         9.9855289108         5.4567085933         5.7534382501
Ar        -0.0730471575         4.7954076904        -2.2616499844
Ar         2.9429870398        14.2428788207         6.2762613645
Ar         6.8556282998        -9.3319829846        13.7418761056
Ar         4.6258164650        11.8370225895        -6.5717717082
Ar  22410882.8093677573  23472171.5490736328 -18353890.0995037779
Ar -76455970.3344916999 -20933544.2349753119 -12435000.7910883352
Ar  54045098.4273207635  -2538605.4213825390  30788905.8195761815
Ar ******************** ******************** ********************
Ar ******************** ******************** ********************
Ar ******************** ******************** ********************
Ar        14.6499544659        13.2184263363        -3.2943395107
Ar        15.8098102139        19.7812318112         2.7502065461
Ar        -8.3090229129       -16.9591653738         8.3237642304
Ar     88876.3552679432   -206436.3954449814     98185.2188265632
Ar    -38523.8776053482     58546.4355274169      6557.3017196975
Ar    -50338.8125362524    147899.4218608912   -104726.5152415379
Ar -27028449.6212696582 -53382058.5626170412 -15123710.9537393916
Ar  19286680.0568461157  22505921.9521289952  17327695.8350595310
Ar   7741780.8921788437  30876153.7567580156  -2203966.0946881957
Ar         8.7534512111         6.6969589237        10.7627255180
Ar        -5.0815690729         3.1931013976         0.9051734168
Ar        11.4370967084         2.4171981091         6.3580437196
Ar      -283.1520221936      -496.8403910848      -500.8693203357
Ar      1561.3147032203      1838.8289276056      1697.9538003914
Ar     -1265.0451424736     -1329.2859325669     -1189.6695207936
Ar      4927.4224602217       383.4162490518     -4928.9841402443
Ar     -3763.8552427726     -4177.7570293067      3583.8994158481
Ar     -1152.6536744394      3807.1545097450      1364.7517059339
Ar        17.7149885933        12.7937573039         4.0037584240
Ar      -416.5109860970      -210.1607921743        77.1028657050
Ar       418.6911330344       209.1601681111       -68.4607191778
Ar         2.9352453393         6.7754236885         3.7814033161
Ar         0.1826204034         4.5744707117         8.4183187131
Ar        10.1271927897        -5.0211980607         6.4053082607
Ar     21653.2531016402       -50.6506906363     -3962.8558145107
Ar     -6512.6522915603     -7801.0040153457     -6403.7914744905
Ar    -15122.4559312298      7868.0975763498     10382.5065982688
Ar        18.1117107254        -2.7514774163         1.9385858746
Ar        -5.5651297923         0.4983728680        12.0924453294
Ar        -0.2412048524        21.7913175679         7.5852532524
Ar       -33.9953494142        35.8872519517       -23.4929887828
Ar       118.4965016218         9.7027703733       150.3168364234
Ar       -79.7727508282       -37.4542049300      -119.0544798695
Ar         5.6109196073         7.3675639386         8.5862948169
Ar        -3.2415659634       -27.3719601856        19.4796577445
Ar        13.3787572510        34.9131016222       -21.0336648096
Ar         5.9148701466         2.4491269211        12.4424742424
Ar         3.6378104356         6.5336197313         4.4388214102
Ar        -1.4193086925         7.6381619454         3.4554810986
Ar ******************** ******************** ********************
Ar ******************** ******************** ********************
Ar ******************** ******************** ********************
Ar        10.1146569018        -5.9347197712        21.1671507005
Ar       -10.2425966092         8.9395296560       -11.1392691318
Ar        10.9293274791         7.7322087199        13.4157301591
Ar -34165537.9086691290  15047543.2053277101  15566944.4775585141
Ar  26511527.1573115438 -14451988.5304271467    -34903.1517357430
Ar   7654031.5590605903   -595536.8334087282 -15532030.1542426515
Ar       -90.7960095087     -3230.3854529388      8225.6130770797
Ar     -1483.5745542889      5081.5558979757     -8457.8967797402
Ar      1590.2493251313     -1831.9461390179       239.4756084432
